 vasp.5.4.1 24Jun15 (build Nov 25 2015 16:39:35) complex

 executed on         CrayXC-Intel date 2016.10.08  20:34:31

 INCAR:
 POTCAR:    PAW_PBE C 08Apr2002
 POTCAR:    PAW_PBE N 08Apr2002
 POTCAR:    PAW_PBE H 15Jun2001
 POTCAR:    PAW_PBE Pb_d 06Sep2000
 POTCAR:    PAW_PBE I 08Apr2002

 POTCAR:    PAW_PBE C 08Apr2002
   VRHFIN =C: s2p2

   TITEL  = PAW_PBE C 08Apr2002
   POMASS =   12.011; ZVAL   =    4.000    mass and valenz
   ENMAX  =  400.000; ENMIN  =  300.000 eV

 POTCAR:    PAW_PBE N 08Apr2002
   VRHFIN =N: s2p3

[...]

 POTCAR:    PAW_PBE H 15Jun2001
   VRHFIN =H: ultrasoft test

   TITEL  = PAW_PBE H 15Jun2001
   POMASS =    1.000; ZVAL   =    1.000    mass and valenz
   ENMAX  =  250.000; ENMIN  =  200.000 eV

 POTCAR:    PAW_PBE Pb_d 06Sep2000
   VRHFIN =Pb:

   TITEL  = PAW_PBE Pb_d 06Sep2000
   POMASS =  207.200; ZVAL   =   14.000    mass and valenz
   ENMAX  =  237.835; ENMIN  =  178.376 eV

 POTCAR:    PAW_PBE I 08Apr2002
   VRHFIN =I : s2p5

   TITEL  = PAW_PBE I 08Apr2002
   POMASS =  126.904; ZVAL   =    7.000    mass and valenz
   ENMAX  =  175.647; ENMIN  =  131.735 eV

  PAW_PBE C 08Apr2002                   :
  PAW_PBE N 08Apr2002                   :
  PAW_PBE H 15Jun2001                   :
  PAW_PBE Pb_d 06Sep2000                :
  PAW_PBE I 08Apr2002                   :

 POSCAR: MA-Pb-I (Github)
  positions in direct lattice
 exchange correlation table for  LEXCH =       14
   RHO(1)=    0.500       N(1)  =     2000
   RHO(2)=  100.500       N(2)  =     4000

 ion  position               nearest neighbor table
   1  0.903  1.000  0.996-   3 1.10   5 1.10   4 1.10   2 1.48
   2  0.137  1.000  0.025-   6 1.04   7 1.04   8 1.05   1 1.48
   3  0.865  1.000  0.826-   1 1.10
   4  0.838  0.144  0.072-   1 1.10
   5  0.838  0.857  0.072-   1 1.10
   6  0.208  0.134  0.958-   2 1.04
   7  0.207  0.865  0.958-   2 1.04
   8  0.182  0.000  0.185-   2 1.05
   9  0.476  0.500  0.476-  12 3.07  10 3.15  11 3.15  11 3.15  10 3.18  12 3.23
  10  0.427  0.500  0.973-   9 3.15   9 3.18
  11  0.436  0.000  0.507-   9 3.15   9 3.15
  12  0.963  0.500  0.448-   9 3.07   9 3.23

  LATTYP: Found a simple monoclinic cell.
 ALAT       =     6.2901201248
 B/A-ratio  =     0.9974197462
 C/A-ratio  =     1.4105278383
 COS(beta)  =    -0.7044835581

  Lattice vectors:

 A1 = (  -6.2901201248,   0.0000000000,   0.0000000000)
 A2 = (  -0.0000776940,  -6.2738900180,   0.0000000000)
 A3 = (   6.2504525538,  -0.0001537931,   6.2969150416)

Analysis of symmetry for initial positions (statically):
 Subroutine PRICEL returns:
 Original cell was already a primitive cell.

 Routine SETGRP: Setting up the symmetry group for a
 simple monoclinic supercell.

 Subroutine GETGRP returns: Found  1 space group operations
 (whereof  1 operations were pure point group operations)
 out of a pool of  4 trial point group operations.

The static configuration has the point symmetry C_1 .

Analysis of symmetry for dynamics (positions and initial velocities):
 Subroutine PRICEL returns:
 Original cell was already a primitive cell.

[...]

The dynamic configuration has the point symmetry C_1 .

Analysis of structural, dynamic, and magnetic symmetry:
 Subroutine PRICEL returns:
 Original cell was already a primitive cell.

 Routine SETGRP: Setting up the symmetry group for a
 simple monoclinic supercell.

 Subroutine GETGRP returns: Found  1 space group operations
 (whereof  1 operations were pure point group operations)
 out of a pool of  4 trial point group operations.

The (compounded) configuration has the point symmetry C_1 .

 Subroutine INISYM returns: Found  1 space group operations
 (whereof  1 operations are pure point group operations),
 and found     1 'primitive' translations

 KPOINTS: Automatically generated mesh
  k-points in reciprocal lattice
Space group operators:
 irot       det(A)        alpha          n_x          n_y          n_z        tau_x        tau_y        tau_z
    1     1.000000     0.000000     1.000000     0.000000     0.000000     0.000000     0.000000     0.000000

 I would recommend the setting:
   dimension x,y,z NGX =    46 NGY =   46 NGZ =   46
 SYSTEM =  Name
 POSCAR =  MA-Pb-I (Github)

 Startparameter for this run:
   NWRITE =      2    write-flag & timer
   PREC   = accura    normal or accurate (medium, high low for compatibility)
   ISTART =      0    job   : 0-new  1-cont  2-samecut
   ICHARG =     11    charge: 1-file 2-atom 10-const
   ISPIN  =      1    spin polarized calculation?
   LNONCOLLINEAR =      T non collinear calculations
   LSORBIT =      T    spin-orbit coupling
   INIWAV =      1    electr: 0-lowe 1-rand  2-diag
   LASPH  =      F    aspherical Exc in radial PAW
   METAGGA=      F    non-selfconsistent MetaGGA calc.

 Electronic Relaxation 1
   ENCUT  =  500.0 eV  36.75 Ry    6.06 a.u.  11.47 11.44 11.48*2*pi/ulx,y,z
   ENINI  =  500.0     initial cutoff
   ENAUG  =  644.9 eV  augmentation charge cutoff
   NELM   =     60;   NELMIN=  5; NELMDL=  0     # of ELM steps
   EDIFF  = 0.1E-05   stopping-criterion for ELM
   LREAL  =      F    real-space projection
   NLSPLINE    = F    spline interpolate recip. space projectors
   LCOMPAT=      F    compatible to vasp.4.4
   GGA_COMPAT  = T    GGA compatible to vasp.4.4-vasp.4.6
   LMAXPAW     = -100 max onsite density
   LMAXMIX     =    2 max onsite mixed and CHGCAR
   VOSKOWN=      0    Vosko Wilk Nusair interpolation
   ROPT   =    0.00000   0.00000   0.00000   0.00000
   ROPT   =    0.00000
 Ionic relaxation
   EDIFFG = -.5E-02   stopping-criterion for IOM
   NSW    =      0    number of steps for IOM
   NBLOCK =      1;   KBLOCK =      1    inner block; outer block
   IBRION =     -1    ionic relax: 0-MD 1-quasi-New 2-CG
   NFREE  =      1    steps in history (QN), initial steepest desc. (CG)
   ISIF   =      3    stress and relaxation
   IWAVPR =     10    prediction:  0-non 1-charg 2-wave 3-comb
   ISYM   =      2    0-nonsym 1-usesym 2-fastsym
   LCORR  =      T    Harris-Foulkes like correction to forces

   POTIM  = 0.5000    time-step for ionic-motion
   TEIN   =    0.0    initial temperature
   TEBEG  =    0.0;   TEEND  =   0.0 temperature during run
   SMASS  =  -3.00    Nose mass-parameter (am)
   estimated Nose-frequenzy (Omega)   =  0.10E-29 period in steps =****** mass=  -0.904E-27a.u.
   SCALEE = 1.0000    scale energy and forces
   NPACO  =    256;   APACO  = 16.0  distance and # of slots for P.C.
   PSTRESS=    0.0 pullay stress

  Mass of Ions in am
   POMASS =  12.01 14.00  1.00207.20126.90
  Ionic Valenz
   ZVAL   =   4.00  5.00  1.00 14.00  7.00
  Atomic Wigner-Seitz radii
  virtual crystal weights
   VCA    =   1.00  1.00  1.00  1.00  1.00
   NELECT =      50.0000    total number of electrons
   NUPDOWN=      -1.0000    fix difference up-down

 DOS related values:
   EMIN   =  10.00;   EMAX   =-10.00  energy-range for DOS
   EFERMI =   0.00
   ISMEAR =     0;   SIGMA  =   0.01  broadening in eV -4-tet -1-fermi 0-gaus

 Electronic relaxation 2 (details)
   IALGO  =     38    algorithm
   LDIAG  =      T    sub-space diagonalisation (order eigenvalues)
   LSUBROT=      F    optimize rotation matrix (better conditioning)
   TURBO    =      0    0=normal 1=particle mesh
   IRESTART =      0    0=no restart 2=restart with 2 vectors
   NREBOOT  =      0    no. of reboots
   NMIN     =      0    reboot dimension
   EREF     =   0.00    reference energy to select bands
   IMIX   =      4    mixing-type and parameters
     AMIX     =   0.40;   BMIX     =  1.00
     AMIX_MAG =   1.60;   BMIX_MAG =  1.00
     AMIN     =   0.01
     WC   =   100.;   INIMIX=   1;  MIXPRE=   1;  MAXMIX= -45

 Intra band minimization:
   WEIMIN = 0.0000     energy-eigenvalue tresh-hold
   EBREAK =  0.33E-08  absolut break condition
   DEPER  =   0.30     relativ break condition

   TIME   =   0.40     timestep for ELM

  volume/ion in A,a.u.               =      20.71       139.75
  Fermi-wavevector in a.u.,A,eV,Ry     =   0.959306  1.812825 12.520994  0.920267
  Thomas-Fermi vector in A             =   2.088490

 Write flags
   LWAVE  =      T    write WAVECAR
   LCHARG =      T    write CHGCAR
   LVTOT  =      F    write LOCPOT, total local potential
   LVHAR  =      F    write LOCPOT, Hartree potential only
   LELF   =      F    write electronic localiz. function (ELF)
   LORBIT =     10    0 simple, 1 ext, 2 COOP (PROOUT)

 Dipole corrections
   LMONO  =      F    monopole corrections only (constant potential shift)
   LDIPOL =      F    correct potential (dipole corrections)
   IDIPOL =      0    1-x, 2-y, 3-z, 4-all directions
   EPSILON=  1.0000000 bulk dielectric constant

 Exchange correlation treatment:
   GGA     =    PS    GGA type
   VOSKOWN=      0    Vosko Wilk Nusair interpolation
   LHFCALC =     F    Hartree Fock is set to
   LHFONE  =     F    Hartree Fock one center treatment
   AEXX    =    0.0000 exact exchange contribution

 Linear response parameters
   LEPSILON=     F    determine dielectric tensor
   LRPA    =     F    only Hartree local field effects (RPA)
   LNABLA  =     F    use nabla operator in PAW spheres
   LVEL    =     F    velocity operator in full k-point grid
   LINTERFAST=   F  fast interpolation
   KINTER  =     0    interpolate to denser k-point grid
   CSHIFT  =0.1000    complex shift for real part using Kramers Kronig
   OMEGAMAX=  -1.0    maximum frequency
   DEG_THRESHOLD= 0.2000000E-02 threshold for treating states as degnerate
   RTIME   =    0.100 relaxation time in fs

 Orbital magnetization related:
   ORBITALMAG=     F  switch on orbital magnetization
   LCHIMAG   =     F  perturbation theory with respect to B field
   DQ        =  0.001000  dq finite difference perturbation B field

 Static calculation
 charge density and potential remain constant during run
 non collinear spin polarized calculation
 Variant of blocked Davidson
 Davidson routine will perform the subspace rotation
 perform sub-space diagonalisation
    after iterative eigenvector-optimisation
 no mixing
 using additional bands           51
 reciprocal scheme for non local part
 use partial core corrections
 calculate Harris-corrections to forces
   (improved forces if not selfconsistent)
 use gradient corrections
 WARNING: stress and forces are not correct
  (second derivative of E(xc) not defined)
 use of overlap-Matrix (Vanderbilt PP)
 Gauss-broadening in eV      SIGMA  =   0.01

  energy-cutoff  :      500.00
  volume of cell :      248.50
      direct lattice vectors                 reciprocal lattice vectors
     6.290120125  0.000000000  0.000000000     0.158979476 -0.000001969  0.001001495
     0.000077694  6.273890018  0.000000000     0.000000000  0.159390744  0.000003893
    -0.039667571 -0.000153793  6.296915042     0.000000000  0.000000000  0.158807923

  length of vectors
     6.290120125  6.273890018  6.297039986     0.158982630  0.159390744  0.158807923

 k-points in units of 2pi/SCALE and weight: Automatically generated mesh
   0.00000000  0.00000000  0.00000000       0.005
   0.02649658 -0.00000033  0.00016692       0.005
   0.05299316 -0.00000066  0.00033383       0.005
   0.07948974 -0.00000098  0.00050075       0.005
  -0.05299316  0.00000066 -0.00033383       0.005
[...]
  -Hartree energ DENC   =     -1053.53361754
  -exchange      EXHF   =         0.00000000
  -V(xc)+E(xc)   XCENC  =        52.36167505
  PAW double counting   =      3829.96499847    -3737.24079709
  entropy T*S    EENTRO =        -0.00008162
  eigenvalues    EBANDS =        67.34778253
  atomic energy  EATOM  =      3093.59820730
  Solvation  Ediel_sol  =         0.00000000
  free energy    TOTEN  =       357.64210955 eV

  energy without entropy =      357.64219117  energy(sigma->0) =      357.64215036

[...]

 eigenvalue-minimisations  :128092
 total energy-change (2. order) :-0.3602240E+03  (-0.3385651E+03)
 number of electron      49.9999995 magnetization      -0.0000114     -0.0000113     -0.0000114
 augmentation part       49.9999995 magnetization      -0.0000114     -0.0000113     -0.0000114

[...]

 total charge

# of ion     s       p       d       tot
  1        0.836   1.770   0.000   2.606
  2        1.220   2.781   0.000   4.001
  3        0.629   0.045   0.000   0.674
  4        0.628   0.045   0.000   0.673
  5        0.628   0.045   0.000   0.673
  6        0.594   0.078   0.000   0.672
  7        0.594   0.078   0.000   0.672
  8        0.590   0.078   0.000   0.668
  9        1.463   0.554   9.839  11.857
 10        1.510   2.784   0.009   4.304
 11        1.510   2.785   0.009   4.304
 12        1.511   2.773   0.008   4.292
tot       11.713  13.815   9.867  35.395

 magnetization (x)

[...]

 magnetization (y)

[...]

 magnetization (z)

[...]

----------------------------------------- Iteration    1(   9)  ---------------------------------------

 eigenvalue-minimisations  :107792
 total energy-change (2. order) :-0.1733406E-07  (-0.1735084E-07)
 number of electron      49.9999995 magnetization      -0.0000114     -0.0000113     -0.0000114
 augmentation part       49.9999995 magnetization      -0.0000114     -0.0000113     -0.0000114

 Free energy of the ion-electron system (eV)
  alpha Z        PSCENC =        46.46595848
  Ewald energy   TEWEN  =     -1941.32201603
  -Hartree energ DENC   =     -1053.53361754
  -exchange      EXHF   =         0.00000000
  -V(xc)+E(xc)   XCENC  =        52.36167505
  PAW double counting   =      3829.96499847    -3737.24079709
  entropy T*S    EENTRO =        -0.00000000
  eigenvalues    EBANDS =      -343.20235165
  atomic energy  EATOM  =      3093.59820730
  Solvation  Ediel_sol  =         0.00000000
  free energy    TOTEN  =       -52.90794302 eV

  energy without entropy =      -52.90794302  energy(sigma->0) =      -52.90794302

 average (electrostatic) potential at core
  the test charge radii are     0.6991  0.7089  0.5201  1.1541  1.1875
  (the norm of the test charge is              1.0000)
       1 -53.4547       2 -69.7999       3 -35.4781       4 -35.4586       5 -35.4587
       6 -38.0079       7 -38.0059       8 -37.9047       9 -95.1024      10 -93.5109
      11 -93.4482      12 -93.1756

 E-fermi :   1.7476     XC(G=0):  -7.7495     alpha+bet : -7.1939

 k-point     1 :       0.0000    0.0000    0.0000
  band No.  band energies     occupation
      1     -18.2830      1.00000
      2     -18.2830      1.00000
      3     -16.3720      1.00000
      4     -16.3720      1.00000
      5     -16.3548      1.00000
      6     -16.3548      1.00000
      7     -13.8505      1.00000
      8     -13.8505      1.00000
      9     -13.8305      1.00000
     10     -13.8305      1.00000
     11     -13.7805      1.00000
     12     -13.7805      1.00000
     13     -11.3239      1.00000
     14     -11.3239      1.00000
     15     -10.8323      1.00000
     16     -10.8323      1.00000
     17     -10.1233      1.00000
     18     -10.1233      1.00000
     19      -9.8557      1.00000
     20      -9.8557      1.00000
     21      -7.7993      1.00000
     22      -7.7993      1.00000
     23      -7.6342      1.00000
     24      -7.6342      1.00000
     25      -5.8100      1.00000
     26      -5.8100      1.00000
     27      -5.2266      1.00000
     28      -5.2266      1.00000
     29      -3.5243      1.00000
     30      -3.5243      1.00000
     31      -3.5081      1.00000
     32      -3.5081      1.00000
     33      -2.2228      1.00000
     34      -2.2228      1.00000
     35      -2.1893      1.00000
     36      -2.1893      1.00000
     37      -2.0329      1.00000
     38      -2.0329      1.00000
     39      -0.4244      1.00000
     40      -0.4244      1.00000
     41      -0.0485      1.00000
     42      -0.0485      1.00000
     43       0.1063      1.00000
     44       0.1063      1.00000
     45       0.3463      1.00000
     46       0.3463      1.00000
     47       0.5752      1.00000
     48       0.5752      1.00000
     49       0.7918      1.00000
     50       0.7918      1.00000
     51       5.0106      0.00000
     52       5.0106      0.00000
     53       5.6388      0.00000
     54       5.6388      0.00000
     55       6.1163      0.00000
     56       6.1163      0.00000
     57       6.3633      0.00000
     58       6.3634      0.00000
     59       6.4418      0.00000
     60       6.4418      0.00000
     61       6.5763      0.00000
     62       6.5763      0.00000
     63       7.0375      0.00000
     64       7.0375      0.00000
     65       7.8400      0.00000
     66       7.8400      0.00000
     67       8.0609      0.00000
     68       8.0609      0.00000
     69       8.4450      0.00000
     70       8.4451      0.00000
     71       8.8322      0.00000
     72       8.8322      0.00000
     73       9.0174      0.00000
     74       9.0205      0.00000
     75       9.3740      0.00000
     76       9.3788      0.00000

[...]

 k-point   732 :       0.5000    0.5000    0.5000
  band No.  band energies     occupation
      1     -18.2800      1.00000
      2     -18.2800      1.00000
      3     -16.3679      1.00000
      4     -16.3678      1.00000
      5     -16.3509      1.00000
      6     -16.3509      1.00000
      7     -13.8282      1.00000
      8     -13.8282      1.00000
      9     -13.8096      1.00000
     10     -13.8096      1.00000
     11     -13.7824      1.00000
     12     -13.7824      1.00000
     13     -11.3258      1.00000
     14     -11.3257      1.00000
     15     -10.4463      1.00000
     16     -10.4463      1.00000
     17     -10.3732      1.00000
     18     -10.3732      1.00000
     19     -10.0415      1.00000
     20     -10.0415      1.00000
     21      -7.7204      1.00000
     22      -7.7204      1.00000
     23      -7.6020      1.00000
     24      -7.6020      1.00000
     25      -6.9614      1.00000
     26      -6.9614      1.00000
     27      -5.7866      1.00000
     28      -5.7866      1.00000
     29      -3.5209      1.00000
     30      -3.5209      1.00000
     31      -3.5088      1.00000
     32      -3.5088      1.00000
     33      -1.2512      1.00000
     34      -1.2512      1.00000
     35      -0.9231      1.00000
     36      -0.9231      1.00000
     37      -0.5048      1.00000
     38      -0.5048      1.00000
     39       0.1083      1.00000
     40       0.1083      1.00000
     41       0.1362      1.00000
     42       0.1363      1.00000
     43       0.2006      1.00000
     44       0.2006      1.00000
     45       0.8010      1.00000
     46       0.8010      1.00000
     47       1.0784      1.00000
     48       1.0784      1.00000
     49       1.6130      1.00000
     50       1.6130      1.00000
     51       2.1260      0.00000
     52       2.1260      0.00000
     53       3.4377      0.00000
     54       3.4377      0.00000
     55       3.5768      0.00000
     56       3.5768      0.00000
     57       5.6557      0.00000
     58       5.6557      0.00000
     59       7.1811      0.00000
     60       7.1811      0.00000
     61       7.5898      0.00000
     62       7.5898      0.00000
     63       7.7659      0.00000
     64       7.7659      0.00000
     65       7.9430      0.00000
     66       7.9430      0.00000
     67       8.3073      0.00000
     68       8.3073      0.00000
     69       8.4805      0.00000
     70       8.4806      0.00000
     71       8.6359      0.00000
     72       8.6360      0.00000
     73       9.0670      0.00000
     74       9.1080      0.00000
     75       9.1235      0.00000
     76       9.1332      0.00000

 soft charge-density along one line, spin component           1
         0         1         2         3         4         5         6         7         8         9
 total charge-density along one line

[...]

 soft charge-density along one line, spin component           4
         0         1         2         3         4         5         6         7         8         9
 total charge-density along one line

------------------------ aborting loop because EDIFF is reached ----------------------------------------

[...]

  FORCE on cell =-STRESS in cart. coord.  units (eV):
  Direction    XX          YY          ZZ          XY          YZ          ZX
  Alpha Z    46.46596    46.46596    46.46596
  Ewald    -631.85511  -642.25523  -667.21442    -0.07437    -0.09326    21.50540
  Hartree   354.44274   357.29156   341.79329    -0.04956    -0.05760    12.76338
  E(xc)    -199.62288  -199.64315  -199.68693    -0.00019    -0.00000     0.04728
  Local    -618.94785  -608.17681  -569.06433     0.12594     0.14524   -33.86305
  n-local   452.28099   449.21172   449.15644    -0.00175    -0.00002     0.36037
  augment    12.94121    12.92329    12.81009    -0.00011     0.00004     0.02041
  Kinetic   584.44491   584.28602   586.10547     0.00079     0.00430    -0.81610
  Fock        0.00000     0.00000     0.00000     0.00000     0.00000     0.00000
  Total       0.14996     0.10336     0.36558     0.00075    -0.00131     0.01769
  in kB       0.96687     0.66638     2.35706     0.00484    -0.00843     0.11407

 VOLUME and BASIS-vectors are now :
  energy-cutoff  :      500.00
  volume of cell :      248.50
      direct lattice vectors                 reciprocal lattice vectors
     6.290120125  0.000000000  0.000000000     0.158979476 -0.000001969  0.001001495
     0.000077694  6.273890018  0.000000000     0.000000000  0.159390744  0.000003893
    -0.039667571 -0.000153793  6.296915042     0.000000000  0.000000000  0.158807923

  length of vectors
     6.290120125  6.273890018  6.297039986     0.158982630  0.159390744  0.158807923

 FORCES acting on ions
    electron-ion (+dipol)            ewald-force                    non-local-force                 convergence-correction
   0.893E+02 -.819E-01 0.171E+02   -.969E+02 0.863E-01 -.179E+02   0.761E+01 -.341E-02 0.855E+00   0.475E-03 0.175E-04 0.169E-03
   -.423E+02 -.786E-02 0.335E+01   0.412E+02 0.321E-02 -.333E+01   0.104E+01 0.173E-02 -.683E-02   -.220E-03 0.101E-03 -.204E-06
   0.171E+02 0.537E-01 0.494E+02   -.184E+02 -.616E-01 -.550E+02   0.136E+01 0.789E-02 0.555E+01   0.233E-04 0.412E-05 0.284E-03
   0.252E+02 -.389E+02 -.176E+02   -.275E+02 0.435E+02 0.200E+02   0.226E+01 -.464E+01 -.244E+01   0.586E-04 -.221E-03 -.108E-03
   0.253E+02 0.387E+02 -.177E+02   -.275E+02 -.434E+02 0.202E+02   0.226E+01 0.463E+01 -.245E+01   0.567E-04 0.226E-03 -.111E-03
   -.270E+02 -.490E+02 0.270E+02   0.300E+02 0.546E+02 -.298E+02   -.300E+01 -.559E+01 0.278E+01   0.255E-04 -.162E-03 0.915E-04
   -.269E+02 0.490E+02 0.268E+02   0.299E+02 -.546E+02 -.296E+02   -.299E+01 0.560E+01 0.277E+01   0.302E-04 0.170E-03 0.851E-04
   -.144E+02 -.750E-01 -.582E+02   0.162E+02 0.820E-01 0.648E+02   -.182E+01 -.687E-02 -.654E+01   0.486E-04 0.107E-04 -.202E-03
   -.315E+02 0.634E-01 -.104E+02   0.304E+02 -.626E-01 0.101E+02   0.111E+01 -.641E-03 0.274E+00   -.114E-02 -.196E-03 0.222E-04
   -.109E+02 0.716E-01 0.415E+01   0.110E+02 -.738E-01 -.408E+01   -.222E-01 0.227E-02 -.713E-01   -.366E-04 -.375E-04 0.206E-04
   -.128E+02 -.220E-01 -.174E+02   0.128E+02 0.215E-01 0.179E+02   -.237E-01 0.431E-03 -.524E+00   -.660E-04 0.443E-04 -.477E-05
   0.169E+01 0.304E-01 -.693E+01   -.112E+01 -.291E-01 0.679E+01   -.596E+00 -.135E-02 0.136E+00   0.386E-03 -.541E-04 0.134E-04
   -.720E+01 0.135E-02 -.332E+00   -.151E-13 -.230E-14 -.133E-13   0.720E+01 -.130E-02 0.331E+00   -.359E-03 -.976E-04 0.259E-03

 POSITION                                       TOTAL-FORCE (eV/Angst)
      5.63915      6.27350      6.27384         0.003190      0.001001     -0.004034
      0.85821      6.27280      0.15665        -0.006350     -0.002814      0.010932
      5.40518      6.27196      5.19958         0.005779      0.000007     -0.003913
      5.26698      0.90190      0.45292        -0.002697      0.000567     -0.004317
      5.26573      5.37368      0.45579        -0.002891     -0.001179     -0.004047
      1.26776      0.84227      6.03329         0.004759      0.004993      0.003649
      1.26657      5.42716      6.03557         0.004026     -0.002736      0.004608
      1.13753     -0.00001      1.16715        -0.003898      0.000143      0.005568
      2.97634      3.13707      2.99511         0.021947      0.000007     -0.001623
      2.64610      3.13606      6.12444         0.000931      0.000061     -0.002072
      2.72152      0.00020      3.18965         0.000991      0.000003      0.002757
      6.03902      3.13830      2.81942        -0.025787     -0.000052     -0.007508
    total drift:                               -0.000331     -0.000041     -0.000320

  FREE ENERGIE OF THE ION-ELECTRON SYSTEM (eV)
  free  energy   TOTEN  =       -52.90794302 eV

  energy  without entropy=      -52.90794302  energy(sigma->0) =      -52.90794302

 writing wavefunctions

 Spin-Orbit-Coupling matrix elements

 Ion:    1  E_soc:     -0.0000134
 l=   1
     0.0000000    -0.0000027    -0.0000020
    -0.0000027     0.0000000    -0.0000020
    -0.0000020    -0.0000020     0.0000000
 l=   2
     0.0000000     0.0000000     0.0000000     0.0000000     0.0000000
     0.0000000     0.0000000     0.0000000     0.0000000     0.0000000
     0.0000000     0.0000000     0.0000000     0.0000000     0.0000000
     0.0000000     0.0000000     0.0000000     0.0000000     0.0000000
     0.0000000     0.0000000     0.0000000     0.0000000     0.0000000
 l=   3
     0.0000000     0.0000000     0.0000000     0.0000000     0.0000000     0.0000000     0.0000000
     0.0000000     0.0000000     0.0000000     0.0000000     0.0000000     0.0000000     0.0000000
     0.0000000     0.0000000     0.0000000     0.0000000     0.0000000     0.0000000     0.0000000
     0.0000000     0.0000000     0.0000000     0.0000000     0.0000000     0.0000000     0.0000000
     0.0000000     0.0000000     0.0000000     0.0000000     0.0000000     0.0000000     0.0000000
     0.0000000     0.0000000     0.0000000     0.0000000     0.0000000     0.0000000     0.0000000
     0.0000000     0.0000000     0.0000000     0.0000000     0.0000000     0.0000000     0.0000000

[...]

 Ion:   12  E_soc:     -0.2864314
 l=   1
     0.0000000    -0.0428156    -0.0500274
    -0.0428156     0.0000000    -0.0504004
    -0.0500274    -0.0504004     0.0000000
 l=   2
     0.0000000    -0.0000023     0.0000000    -0.0000087     0.0000227
    -0.0000023     0.0000000    -0.0000027    -0.0000024    -0.0000011
     0.0000000    -0.0000027     0.0000000     0.0000071     0.0000000
    -0.0000087    -0.0000024     0.0000071     0.0000000     0.0000152
     0.0000227    -0.0000011     0.0000000     0.0000152     0.0000000
 l=   3
     0.0000000     0.0000000     0.0000000     0.0000000     0.0000000     0.0000000     0.0000000
     0.0000000     0.0000000     0.0000000     0.0000000     0.0000000     0.0000000     0.0000000
     0.0000000     0.0000000     0.0000000     0.0000000     0.0000000     0.0000000     0.0000000
     0.0000000     0.0000000     0.0000000     0.0000000     0.0000000     0.0000000     0.0000000
     0.0000000     0.0000000     0.0000000     0.0000000     0.0000000     0.0000000     0.0000000
     0.0000000     0.0000000     0.0000000     0.0000000     0.0000000     0.0000000     0.0000000
     0.0000000     0.0000000     0.0000000     0.0000000     0.0000000     0.0000000     0.0000000

 total charge

[...]

 magnetization (x)

[...]

 magnetization (y)

[...]

 magnetization (z)

# of ion     s       p       d       tot
  1       -0.000  -0.000   0.000  -0.000
  2       -0.000  -0.000   0.000  -0.000
  3        0.000  -0.000   0.000   0.000
  4        0.000  -0.000   0.000   0.000
  5        0.000  -0.000   0.000   0.000
  6        0.000   0.000   0.000   0.000
  7        0.000   0.000   0.000   0.000
  8        0.000   0.000   0.000   0.000
  9       -0.000  -0.000  -0.000  -0.000
 10        0.000  -0.000   0.000  -0.000
 11        0.000  -0.000  -0.000  -0.000
 12        0.000  -0.000   0.000   0.000
tot        0.000  -0.000  -0.000  -0.000