 vasp.5.4.1 24Jun15 (build Nov 25 2015 16:39:35) complex

 executed on         CrayXC-Intel date 2016.11.17  18:13:32

 INCAR:
 POTCAR:    PAW_PBE Cu_pv 06Sep2000
 POTCAR:    PAW_PBE Zn 06Sep2000
 POTCAR:    PAW_PBE Sn_d 06Sep2000
 POTCAR:    PAW_PBE S 06Sep2000

 POTCAR:    PAW_PBE Cu_pv 06Sep2000
   VRHFIN =Cu: d10 p1

   TITEL  = PAW_PBE Cu_pv 06Sep2000
   POMASS =   63.546; ZVAL   =   17.000    mass and valenz
   ENMAX  =  368.648; ENMIN  =  276.486 eV

 POTCAR:    PAW_PBE Zn 06Sep2000
   VRHFIN =Zn: d10 p2

   TITEL  = PAW_PBE Zn 06Sep2000
   POMASS =   65.390; ZVAL   =   12.000    mass and valenz
   ENMAX  =  276.723; ENMIN  =  207.542 eV

 POTCAR:    PAW_PBE Sn_d 06Sep2000
   VRHFIN =Sn: s2p2

   TITEL  = PAW_PBE Sn_d 06Sep2000
   POMASS =  118.710; ZVAL   =   14.000    mass and valenz
   ENMAX  =  241.083; ENMIN  =  180.812 eV

 POTCAR:    PAW_PBE S 06Sep2000
   VRHFIN =S : s2p4

   TITEL  = PAW_PBE S 06Sep2000
   POMASS =   32.066; ZVAL   =    6.000    mass and valenz
   ENMAX  =  258.689; ENMIN  =  194.016 eV

  PAW_PBE Cu_pv 06Sep2000               :
  PAW_PBE Zn 06Sep2000                  :
  PAW_PBE Sn_d 06Sep2000                :
  PAW_PBE S 06Sep2000                   :

 POSCAR: Cu2ZnSnS4 (LaFond 2014, 293 K)
  positions in direct lattice
 exchange correlation table for  LEXCH =        8
   RHO(1)=    0.500       N(1)  =     2000
   RHO(2)=  100.500       N(2)  =     4000

 ion  position               nearest neighbor table
   1  0.000  0.000  0.000-   5 2.32   6 2.32   7 2.32   8 2.32
   2  0.750  0.250  0.500-   8 2.32   6 2.32   7 2.32   5 2.32
   3  0.500  0.500  0.000-   8 2.35   6 2.35   7 2.35   5 2.35
   4  0.250  0.750  0.500-   8 2.42   6 2.42   7 2.42   5 2.42
   5  0.118  0.134  0.244-   1 2.32   2 2.32   3 2.35   4 2.42
   6  0.639  0.623  0.244-   1 2.32   2 2.32   3 2.35   4 2.42
   7  0.866  0.361  0.756-   1 2.32   2 2.32   3 2.35   4 2.42
   8  0.377  0.882  0.756-   1 2.32   2 2.32   3 2.35   4 2.42

IMPORTANT INFORMATION: All symmetrisations will be switched off!
NOSYMM: (Re-)initialisation of all symmetry stuff for point group C_1.

 KPOINTS: Automatically generated mesh
  k-points in reciprocal lattice
Space group operators:
 irot       det(A)        alpha          n_x          n_y          n_z        tau_x        tau_y        tau_z
    1     1.000000     0.000000     1.000000     0.000000     0.000000     0.000000     0.000000     0.000000

 Subroutine IBZKPT_HF returns following result:

 Found    283 k-points in 1st BZ
 the following    283 k-points will be used (e.g. in the exchange kernel)
 Following reciprocal coordinates:   # in IRBZ
  0.000000  0.000000  0.000000    0.00694444   1 t-inv F
  0.166667  0.000000  0.000000    0.00694444   2 t-inv F
  0.333333  0.000000  0.000000    0.00694444   3 t-inv F
  0.500000  0.000000  0.000000    0.00694444   4 t-inv F
 -0.333333  0.000000  0.000000    0.00694444   5 t-inv F
 -0.166667  0.000000  0.000000    0.00694444   6 t-inv F
  0.000000  0.166667  0.000000    0.00694444   7 t-inv F
  0.166667  0.166667  0.000000    0.00694444   8 t-inv F
  0.333333  0.166667  0.000000    0.00694444   9 t-inv F
  0.500000  0.166667  0.000000    0.00694444  10 t-inv F
 -0.333333  0.166667  0.000000    0.00694444  11 t-inv F
 -0.166667  0.166667  0.000000    0.00694444  12 t-inv F
  0.000000  0.333333  0.000000    0.00694444  13 t-inv F
  0.166667  0.333333  0.000000    0.00694444  14 t-inv F
  0.333333  0.333333  0.000000    0.00694444  15 t-inv F
  0.500000  0.333333  0.000000    0.00694444  16 t-inv F
 -0.333333  0.333333  0.000000    0.00694444  17 t-inv F
 -0.166667  0.333333  0.000000    0.00694444  18 t-inv F
  0.000000  0.500000  0.000000    0.00694444  19 t-inv F
  0.166667  0.500000  0.000000    0.00694444  20 t-inv F
  0.333333  0.500000  0.000000    0.00694444  21 t-inv F
  0.500000  0.500000  0.000000    0.00694444  22 t-inv F
 -0.333333  0.500000  0.000000    0.00694444  23 t-inv F
 -0.166667  0.500000  0.000000    0.00694444  24 t-inv F
  0.000000 -0.333333  0.000000    0.00694444  25 t-inv F
  0.166667 -0.333333  0.000000    0.00694444  26 t-inv F
  0.333333 -0.333333  0.000000    0.00694444  27 t-inv F
  0.500000 -0.333333  0.000000    0.00694444  28 t-inv F
 -0.333333 -0.333333  0.000000    0.00694444  29 t-inv F
 -0.166667 -0.333333  0.000000    0.00694444  30 t-inv F
  0.000000 -0.166667  0.000000    0.00694444  31 t-inv F
  0.166667 -0.166667  0.000000    0.00694444  32 t-inv F
  0.333333 -0.166667  0.000000    0.00694444  33 t-inv F
  0.500000 -0.166667  0.000000    0.00694444  34 t-inv F
 -0.333333 -0.166667  0.000000    0.00694444  35 t-inv F
 -0.166667 -0.166667  0.000000    0.00694444  36 t-inv F
  0.000000  0.000000  0.250000    0.00694444  37 t-inv F
  0.166667  0.000000  0.250000    0.00694444  38 t-inv F
  0.333333  0.000000  0.250000    0.00694444  39 t-inv F
  0.500000  0.000000  0.250000    0.00694444  40 t-inv F
 -0.333333  0.000000  0.250000    0.00694444  41 t-inv F
 -0.166667  0.000000  0.250000    0.00694444  42 t-inv F
  0.000000  0.166667  0.250000    0.00694444  43 t-inv F
  0.166667  0.166667  0.250000    0.00694444  44 t-inv F
  0.333333  0.166667  0.250000    0.00694444  45 t-inv F
  0.500000  0.166667  0.250000    0.00694444  46 t-inv F
 -0.333333  0.166667  0.250000    0.00694444  47 t-inv F
 -0.166667  0.166667  0.250000    0.00694444  48 t-inv F
  0.000000  0.333333  0.250000    0.00694444  49 t-inv F
  0.166667  0.333333  0.250000    0.00694444  50 t-inv F
  0.333333  0.333333  0.250000    0.00694444  51 t-inv F
  0.500000  0.333333  0.250000    0.00694444  52 t-inv F
 -0.333333  0.333333  0.250000    0.00694444  53 t-inv F
 -0.166667  0.333333  0.250000    0.00694444  54 t-inv F
  0.000000  0.500000  0.250000    0.00694444  55 t-inv F
  0.166667  0.500000  0.250000    0.00694444  56 t-inv F
  0.333333  0.500000  0.250000    0.00694444  57 t-inv F
  0.500000  0.500000  0.250000    0.00694444  58 t-inv F
 -0.333333  0.500000  0.250000    0.00694444  59 t-inv F
 -0.166667  0.500000  0.250000    0.00694444  60 t-inv F
[...]
  0.000000  0.000000  0.230769    0.00000000 269 t-inv F
  0.000000  0.000000  0.250000    0.00000000 270 t-inv F
  0.000000  0.000000  0.269231    0.00000000 271 t-inv F
  0.000000  0.000000  0.288462    0.00000000 272 t-inv F
  0.000000  0.000000  0.307692    0.00000000 273 t-inv F
  0.000000  0.000000  0.326923    0.00000000 274 t-inv F
  0.000000  0.000000  0.346154    0.00000000 275 t-inv F
  0.000000  0.000000  0.365385    0.00000000 276 t-inv F
  0.000000  0.000000  0.384615    0.00000000 277 t-inv F
  0.000000  0.000000  0.403846    0.00000000 278 t-inv F
  0.000000  0.000000  0.423077    0.00000000 279 t-inv F
  0.000000  0.000000  0.442308    0.00000000 280 t-inv F
  0.000000  0.000000  0.461538    0.00000000 281 t-inv F
  0.000000  0.000000  0.480769    0.00000000 282 t-inv F
  0.000000  0.000000  0.500000    0.00000000 283 t-inv F

 I would recommend the setting:
   dimension x,y,z NGX =    40 NGY =   40 NGZ =   48
 SYSTEM =  Hybrid non self-consistent (band struct
 POSCAR =  Cu2ZnSnS4 (LaFond 2014, 293 K)

 Startparameter for this run:
   NWRITE =      2    write-flag & timer
   PREC   = accura    normal or accurate (medium, high low for compatibility)
   ISTART =      0    job   : 0-new  1-cont  2-samecut
   ICHARG =      2    charge: 1-file 2-atom 10-const
   ISPIN  =      1    spin polarized calculation?
   LNONCOLLINEAR =      T non collinear calculations
   LSORBIT =      T    spin-orbit coupling
   INIWAV =      1    electr: 0-lowe 1-rand  2-diag
   LASPH  =      F    aspherical Exc in radial PAW
   METAGGA=      F    non-selfconsistent MetaGGA calc.

 Electronic Relaxation 1
   ENCUT  =  500.0 eV  36.75 Ry    6.06 a.u.   9.91  9.91 12.12*2*pi/ulx,y,z
   ENINI  =  500.0     initial cutoff
   ENAUG  =  758.2 eV  augmentation charge cutoff
   NELM   =     60;   NELMIN=  5; NELMDL=  0     # of ELM steps
   EDIFF  = 0.1E-05   stopping-criterion for ELM
   LREAL  =      F    real-space projection
   NLSPLINE    = F    spline interpolate recip. space projectors
   LCOMPAT=      F    compatible to vasp.4.4
   GGA_COMPAT  = T    GGA compatible to vasp.4.4-vasp.4.6
   LMAXPAW     = -100 max onsite density
   LMAXMIX     =    2 max onsite mixed and CHGCAR
   VOSKOWN=      0    Vosko Wilk Nusair interpolation
   ROPT   =    0.00000   0.00000   0.00000   0.00000
 Ionic relaxation
   EDIFFG = -.5E-02   stopping-criterion for IOM
   NSW    =      0    number of steps for IOM
   NBLOCK =      1;   KBLOCK =      1    inner block; outer block
   IBRION =     -1    ionic relax: 0-MD 1-quasi-New 2-CG
   NFREE  =      0    steps in history (QN), initial steepest desc. (CG)
   ISIF   =      3    stress and relaxation
   IWAVPR =     10    prediction:  0-non 1-charg 2-wave 3-comb
   ISYM   =      0    0-nonsym 1-usesym 2-fastsym
   LCORR  =      T    Harris-Foulkes like correction to forces

   POTIM  = 0.5000    time-step for ionic-motion
   TEIN   =    0.0    initial temperature
   TEBEG  =    0.0;   TEEND  =   0.0 temperature during run
   SMASS  =  -3.00    Nose mass-parameter (am)
   estimated Nose-frequenzy (Omega)   =  0.10E-29 period in steps =****** mass=  -0.675E-27a.u.
   SCALEE = 1.0000    scale energy and forces
   NPACO  =    256;   APACO  = 16.0  distance and # of slots for P.C.
   PSTRESS=    0.0 pullay stress

  Mass of Ions in am
   POMASS =  63.55 65.39118.71 32.07
  Ionic Valenz
   ZVAL   =  17.00 12.00 14.00  6.00
  Atomic Wigner-Seitz radii
  virtual crystal weights
   VCA    =   1.00  1.00  1.00  1.00
   NELECT =      84.0000    total number of electrons
   NUPDOWN=      -1.0000    fix difference up-down

 DOS related values:
   EMIN   =  10.00;   EMAX   =-10.00  energy-range for DOS
   EFERMI =   0.00
   ISMEAR =     0;   SIGMA  =   0.01  broadening in eV -4-tet -1-fermi 0-gaus

 Electronic relaxation 2 (details)
   IALGO  =     58    algorithm
   LDIAG  =      T    sub-space diagonalisation (order eigenvalues)
   LSUBROT=      F    optimize rotation matrix (better conditioning)
   TURBO    =      0    0=normal 1=particle mesh
   IRESTART =      0    0=no restart 2=restart with 2 vectors
   NREBOOT  =      0    no. of reboots
   NMIN     =      0    reboot dimension
   EREF     =   0.00    reference energy to select bands
   IMIX   =      4    mixing-type and parameters
     AMIX     =   0.40;   BMIX     =  1.00
     AMIX_MAG =   1.60;   BMIX_MAG =  1.00
     AMIN     =   0.10
     WC   =   100.;   INIMIX=   1;  MIXPRE=   1;  MAXMIX= -45

 Intra band minimization:
   WEIMIN = 0.0000     energy-eigenvalue tresh-hold
   EBREAK =  0.21E-08  absolut break condition
   DEPER  =   0.30     relativ break condition

   TIME   =   0.40     timestep for ELM

  volume/ion in A,a.u.               =      20.03       135.15
  Fermi-wavevector in a.u.,A,eV,Ry     =   1.320082  2.494593 23.709739  1.742617
  Thomas-Fermi vector in A             =   2.449934

 Write flags
   LWAVE  =      T    write WAVECAR
   LCHARG =      T    write CHGCAR
   LVTOT  =      F    write LOCPOT, total local potential
   LVHAR  =      F    write LOCPOT, Hartree potential only
   LELF   =      F    write electronic localiz. function (ELF)
[...]
 number of electron      84.0000000 magnetization       8.0000000      8.0000000      8.0000000
 charge density for first step will be calculated from the start-wavefunctions

 Maximum index for augmentation-charges         1037 (set IRDMAX)

 First call to EWALD:  gamma=   0.326
 Maximum number of real-space cells 3x 3x 3
 Maximum number of reciprocal cells 3x 3x 3

 FEWALD executed in parallel

----------------------------------------- Iteration    1(   1)  ---------------------------------------

 eigenvalue-minimisations  : 81720
 total energy-change (2. order) : 0.1055512E+04  (-0.4477322E+04)
 number of electron      84.0000000 magnetization       8.0000000      8.0000000      8.0000000
 augmentation part       84.0000000 magnetization       8.0000000      8.0000000      8.0000000

 Free energy of the ion-electron system (eV)
  alpha Z        PSCENC =       275.46753454
  Ewald energy   TEWEN  =     -7155.92568703
  -Hartree energ DENC   =     -5111.05795514
  -exchange      EXHF   =         0.00000000
  -V(xc)+E(xc)   XCENC  =       289.45457305
  PAW double counting   =     10941.23887819   -11378.92534011
  entropy T*S    EENTRO =        -0.00019381
  eigenvalues    EBANDS =       219.94870499
  atomic energy  EATOM  =     12975.31123126
  free energy    TOTEN  =      1055.51174595 eV

  energy without entropy =     1055.51193976  energy(sigma->0) =     1055.51184286
  exchange ACFDT corr.  =         0.00000000  see jH, gK, PRB 81, 115126

[...]

 eigenvalue-minimisations  : 67920
 total energy-change (2. order) :-0.7708609E+03  (-0.7357979E+03)
 number of electron      84.0000000 magnetization       8.0000000      8.0000000      8.0000000
 augmentation part       84.0000000 magnetization       8.0000000      8.0000000      8.0000000

[...]

 eigenvalue-minimisations  :     0
 total energy-change (2. order) : 0.2614926E+02  (-0.4726875E+03)
 number of electron      83.9999888 magnetization       0.0074673      0.0082431      0.0077758
 augmentation part       36.3442040 magnetization       0.2115481      0.2110071      0.2114913

[...]

----------------------------------------- Iteration    1(  26)  ---------------------------------------

 eigenvalue-minimisations  :     0
 total energy-change (2. order) :-0.9650648E-06  (-0.5347277E-06)
 number of electron      83.9999897 magnetization       0.0000003     -0.0000001      0.0000001
 augmentation part       34.2850768 magnetization      -0.0000567     -0.0000567     -0.0000568

 Free energy of the ion-electron system (eV)
  alpha Z        PSCENC =       275.46753454
  Ewald energy   TEWEN  =     -7155.92568703
  -Hartree energ DENC   =     -5091.39159834
  -exchange      EXHF   =       242.05398003
  -V(xc)+E(xc)   XCENC  =       288.37960760
  PAW double counting   =     13961.71838953   -14409.53985958
  entropy T*S    EENTRO =        -0.00000000
  eigenvalues    EBANDS =     -1124.76899248
  atomic energy  EATOM  =     12975.31123126
  free energy    TOTEN  =       -38.69539447 eV

  energy without entropy =      -38.69539447  energy(sigma->0) =      -38.69539447
  exchange ACFDT corr.  =         0.00000000  see jH, gK, PRB 81, 115126

  average scaling for gradient   0.7426

 the core state eigenenergies are
   1-  1s    -70.4285  2s    -70.6614  2p    -70.6614  3s    -70.6614
   2-  1s    -70.4309  2s    -70.6601  2p    -70.6601  3s    -70.6601
   3-  1s    -27.1805  2s    -27.3077  2p    -27.3077  3s    -27.3077  3p    -27.3077

   4-  1s    -97.2163  2s    -97.2827  2p    -97.2827  3s    -97.2827  3p    -97.2827
       3d    -97.2827  4s    -97.2827  4p    -97.2827
   5-  1s    -83.6950  2s    -83.8774  2p    -83.8774
   6-  1s    -83.6951  2s    -83.8774  2p    -83.8774
   7-  1s    -83.6950  2s    -83.8774  2p    -83.8774
   8-  1s    -83.6951  2s    -83.8775  2p    -83.8775

 E-fermi :   4.1013     XC(G=0):  -8.1358     alpha+bet : -9.9404

 k-point     1 :       0.0000    0.0000    0.0000
  band No.  band energies     occupation
      1     -70.2017      1.00000
      2     -70.2017      1.00000
      3     -70.1990      1.00000
      4     -70.1989      1.00000
      5     -67.6450      1.00000
      6     -67.6449      1.00000
      7     -67.6306      1.00000
      8     -67.6306      1.00000
      9     -67.6178      1.00000
     10     -67.6178      1.00000
     11     -67.6082      1.00000
     12     -67.6082      1.00000
     13     -20.7465      1.00000
     14     -20.7465      1.00000
     15     -20.7429      1.00000
     16     -20.7429      1.00000
     17     -19.7301      1.00000
     18     -19.7301      1.00000
     19     -19.6687      1.00000
     20     -19.6687      1.00000
     21     -19.6643      1.00000
     22     -19.6643      1.00000
     23     -11.7215      1.00000
     24     -11.7215      1.00000
     25     -10.0801      1.00000
     26     -10.0800      1.00000
     27     -10.0702      1.00000
     28     -10.0702      1.00000
     29     -10.0622      1.00000
     30     -10.0621      1.00000
     31      -4.8356      1.00000
     32      -4.8356      1.00000
     33      -4.8233      1.00000
     34      -4.8233      1.00000
     35      -4.5728      1.00000
     36      -4.5728      1.00000
     37      -4.4880      1.00000
     38      -4.4880      1.00000
     39      -4.4599      1.00000
     40      -4.4599      1.00000
     41      -4.2154      1.00000
     42      -4.2154      1.00000
     43      -1.8619      1.00000
     44      -1.8619      1.00000
     45      -1.2382      1.00000
     46      -1.2381      1.00000
     47      -1.1819      1.00000
     48      -1.1819      1.00000
     49      -0.7495      1.00000
     50      -0.7495      1.00000
     51      -0.6632      1.00000
     52      -0.6631      1.00000
     53      -0.5692      1.00000
     54      -0.5692      1.00000
     55      -0.0295      1.00000
     56      -0.0295      1.00000
     57       0.0088      1.00000
     58       0.0088      1.00000
     59       0.3329      1.00000
     60       0.3330      1.00000
[...]
    106      12.1706      0.00000
    107      12.2431      0.00000
    108      12.2432      0.00000
    109      12.3125      0.00000
    110      12.3125      0.00000
    111      12.3668      0.00000
    112      12.3668      0.00000
    113      15.3147      0.00000
    114      15.3303      0.00000
    115      16.0868      0.00000
    116      16.1453      0.00000
    117      16.2845      0.00000
    118      16.3925      0.00000
    119      16.4816      0.00000
    120      16.5284      0.00000

[...]

 k-point   283 :       0.0000    0.0000    0.5000
  band No.  band energies     occupation
      1     -70.2017      1.00000
      2     -70.2016      1.00000
      3     -70.1989      1.00000
      4     -70.1989      1.00000
      5     -67.6449      1.00000
      6     -67.6448      1.00000
      7     -67.6306      1.00000
      8     -67.6305      1.00000
      9     -67.6177      1.00000
     10     -67.6177      1.00000
     11     -67.6082      1.00000
     12     -67.6081      1.00000
     13     -20.7466      1.00000
     14     -20.7466      1.00000
     15     -20.7428      1.00000
     16     -20.7428      1.00000
     17     -19.7300      1.00000
     18     -19.7300      1.00000
     19     -19.6687      1.00000
     20     -19.6688      1.00000
     21     -19.6641      1.00000
     22     -19.6641      1.00000
     23     -11.2076      1.00000
     24     -11.2075      1.00000
     25     -10.7880      1.00000
     26     -10.7880      1.00000
     27     -10.0858      1.00000
     28     -10.0858      1.00000
     29     -10.0787      1.00000
     30     -10.0787      1.00000
     31      -5.0973      1.00000
     32      -5.0973      1.00000
     33      -4.8120      1.00000
     34      -4.8120      1.00000
     35      -4.6672      1.00000
     36      -4.6672      1.00000
     37      -4.4972      1.00000
     38      -4.4972      1.00000
     39      -4.4444      1.00000
     40      -4.4444      1.00000
     41      -3.7521      1.00000
     42      -3.7521      1.00000
     43      -2.2321      1.00000
     44      -2.2321      1.00000
     45      -0.8285      1.00000
     46      -0.8285      1.00000
     47      -0.8150      1.00000
     48      -0.8150      1.00000
     49      -0.4667      1.00000
     50      -0.4667      1.00000
     51      -0.3484      1.00000
     52      -0.3484      1.00000
     53      -0.3341      1.00000
     54      -0.3341      1.00000
     55      -0.0322      1.00000
     56      -0.0322      1.00000
     57      -0.0097      1.00000
     58      -0.0097      1.00000
     59       0.4669      1.00000
     60       0.4669      1.00000
[...]
    106      12.7342      0.00000
    107      13.1602      0.00000
    108      13.1603      0.00000
    109      13.1781      0.00000
    110      13.1782      0.00000
    111      13.2279      0.00000
    112      13.2279      0.00000
    113      15.2498      0.00000
    114      15.2511      0.00000
    115      15.2579      0.00000
    116      15.2580      0.00000
    117      15.8959      0.00000
    118      15.9129      0.00000
    119      16.6762      0.00000
    120      16.7963      0.00000

 soft charge-density along one line, spin component           1
         0         1         2         3         4         5         6         7         8         9
 total charge-density along one line

[...]

 soft charge-density along one line, spin component           4
         0         1         2         3         4         5         6         7         8         9
 total charge-density along one line

------------------------ aborting loop because EDIFF is reached ----------------------------------------

 total charge

# of ion     s       p       d       tot
  1        0.208   6.164   9.066  15.438
  2        0.206   6.161   9.067  15.435
  3        0.490   0.461   9.836  10.787
  4        1.083   1.142  10.122  12.347
  5        1.319   2.413   0.000   3.731
  6        1.319   2.413   0.000   3.731
  7        1.319   2.413   0.000   3.731
  8        1.319   2.413   0.000   3.731
tot        7.263  23.578  38.091  68.932

 magnetization (x)

[...]

 magnetization (y)

[...]

 magnetization (z)

[...]

  FORCE on cell =-STRESS in cart. coord.  units (eV):
  Direction    XX          YY          ZZ          XY          YZ          ZX
  Alpha Z   275.46753   275.46753   275.46753
  Ewald   -2394.86127 -2394.86127 -2366.21278     0.00000     0.00000     0.00000
  Hartree  1686.75912  1686.75915  1717.87738     0.00047     0.00182     0.00186
  E(xc)    -375.94262  -375.94262  -375.94459    -0.00004    -0.00003    -0.00004
  Local    -634.15991  -634.15992  -694.23166    -0.00073    -0.00594    -0.00606
  n-local   660.68235   660.68239   660.94156     0.00047     0.00242     0.00245
  augment   455.52878   455.52878   455.13529    -0.00010    -0.00182    -0.00194
  Kinetic   911.02868   911.02859   911.19730     0.00029     0.00236     0.00249
  Fock            NaN         NaN         NaN         NaN         NaN         NaN
  Total           NaN         NaN         NaN         NaN         NaN         NaN
  in kB           NaN         NaN         NaN         NaN         NaN         NaN

 VOLUME and BASIS-vectors are now :
  energy-cutoff  :      500.00
  volume of cell :      160.21
      direct lattice vectors                 reciprocal lattice vectors
     5.435300000  0.000000000  0.000000000     0.183982485  0.000000000 -0.092196841
     0.000000000  5.435300000  0.000000000     0.000000000  0.183982485 -0.092196841
     2.717650000  2.717650000  5.423179281     0.000000000  0.000000000  0.184393683

  length of vectors
     5.435300000  5.435300000  6.646962958     0.205790700  0.205790700  0.184393683

 FORCES acting on ions:
    Electron-Ion                     Ewald-Force                    Non-Local-Force
   -.104E-02 -.470E-03 0.414E-03   0.792E-11 -.246E-11 -.853E-11   0.741E-03 0.322E-03 -.333E-03
   -.687E-03 -.898E-03 0.724E-03   -.757E-11 -.244E-11 0.882E-11   0.502E-03 0.687E-03 -.615E-03
   -.368E-03 -.818E-03 0.516E-03   0.544E-11 -.267E-11 0.605E-11   0.395E-03 0.728E-03 -.437E-03
   -.166E-02 -.138E-02 0.918E-03   -.553E-11 -.253E-11 -.624E-11   0.157E-02 0.132E-02 -.747E-03
   -.636E+02 -.715E+01 0.576E+01   0.613E+02 0.840E+01 -.704E+01   0.221E+01 -.120E+01 0.122E+01
   0.636E+02 0.715E+01 0.576E+01   -.613E+02 -.840E+01 -.704E+01   -.221E+01 0.120E+01 0.122E+01
   0.715E+01 -.636E+02 -.576E+01   -.840E+01 0.613E+02 0.704E+01   0.120E+01 0.221E+01 -.122E+01
   -.715E+01 0.636E+02 -.576E+01   0.840E+01 -.613E+02 0.704E+01   -.120E+01 -.221E+01 -.122E+01
   -.234E-02 -.224E-02 0.144E-02   -.178E-13 -.711E-14 -.888E-15   0.207E-02 0.217E-02 -.145E-02

 POSITION                                       TOTAL-FORCE (eV/Angst)
      0.00000      0.00000      0.00000              NaN           NaN           NaN
      5.43530      2.71765      2.71159              NaN           NaN           NaN
      2.71765      2.71765      0.00000              NaN           NaN           NaN
      2.71765      5.43530      2.71159              NaN           NaN           NaN
      1.30213      1.38979      1.32105              NaN           NaN           NaN
      4.13317      4.04551      1.32105              NaN           NaN           NaN
      6.76316      4.01978      4.10213              NaN           NaN           NaN
      4.10744      6.85082      4.10213              NaN           NaN           NaN
    total drift:                                     NaN           NaN           NaN

  FREE ENERGIE OF THE ION-ELECTRON SYSTEM (eV)
  free  energy   TOTEN  =       -38.69539447 eV

  energy  without entropy=      -38.69539447  energy(sigma->0) =      -38.69539447

 writing wavefunctions

 Spin-Orbit-Coupling matrix elements

 Ion:    1  E_soc:     -0.0583897
 l=   1
     0.0000000    -0.0083212    -0.0083181
    -0.0083212     0.0000000    -0.0083212
    -0.0083181    -0.0083212     0.0000000
 l=   2
     0.0000000    -0.0002755     0.0000000    -0.0002755    -0.0011484
    -0.0002755     0.0000000    -0.0008452    -0.0002677    -0.0002884
     0.0000000    -0.0008452     0.0000000    -0.0008452     0.0000000
    -0.0002755    -0.0002677    -0.0008452     0.0000000    -0.0002884
    -0.0011484    -0.0002884     0.0000000    -0.0002884     0.0000000
 l=   3
     0.0000000     0.0000000     0.0000000     0.0000000     0.0000000     0.0000000     0.0000000
     0.0000000     0.0000000     0.0000000     0.0000000     0.0000000     0.0000000     0.0000000
     0.0000000     0.0000000     0.0000000     0.0000000     0.0000000     0.0000000     0.0000000
     0.0000000     0.0000000     0.0000000     0.0000000     0.0000000     0.0000000     0.0000000
     0.0000000     0.0000000     0.0000000     0.0000000     0.0000000     0.0000000     0.0000000
     0.0000000     0.0000000     0.0000000     0.0000000     0.0000000     0.0000000     0.0000000
     0.0000000     0.0000000     0.0000000     0.0000000     0.0000000     0.0000000     0.0000000

[...]

 Ion:    8  E_soc:     -0.0019937
 l=   1
     0.0000000    -0.0003296    -0.0003320
    -0.0003296     0.0000000    -0.0003353
    -0.0003320    -0.0003353     0.0000000
 l=   2
     0.0000000     0.0000000     0.0000000     0.0000000     0.0000000
     0.0000000     0.0000000     0.0000000     0.0000000     0.0000000
     0.0000000     0.0000000     0.0000000     0.0000000     0.0000000
     0.0000000     0.0000000     0.0000000     0.0000000     0.0000000
     0.0000000     0.0000000     0.0000000     0.0000000     0.0000000
 l=   3
     0.0000000     0.0000000     0.0000000     0.0000000     0.0000000     0.0000000     0.0000000
     0.0000000     0.0000000     0.0000000     0.0000000     0.0000000     0.0000000     0.0000000
     0.0000000     0.0000000     0.0000000     0.0000000     0.0000000     0.0000000     0.0000000
     0.0000000     0.0000000     0.0000000     0.0000000     0.0000000     0.0000000     0.0000000
     0.0000000     0.0000000     0.0000000     0.0000000     0.0000000     0.0000000     0.0000000
     0.0000000     0.0000000     0.0000000     0.0000000     0.0000000     0.0000000     0.0000000
     0.0000000     0.0000000     0.0000000     0.0000000     0.0000000     0.0000000     0.0000000

 total charge

[...]

 magnetization (x)

[...]

 magnetization (y)

[...]

 magnetization (z)

# of ion     s       p       d       tot
  1        0.000  -0.000  -0.000  -0.000
  2        0.000  -0.000  -0.000  -0.000
  3        0.000  -0.000  -0.000  -0.000
  4       -0.000  -0.000   0.000  -0.000
  5        0.000   0.000   0.000   0.000
  6        0.000   0.000   0.000   0.000
  7        0.000   0.000   0.000   0.000
  8        0.000   0.000   0.000   0.000
tot       -0.000   0.000  -0.000  -0.000