 vasp.5.4.1 24Jun15 (build Nov 25 2015 16:39:35) complex

 executed on         CrayXC-Intel date 2016.10.08  20:32:09

 INCAR:
 POTCAR:    PAW_PBE Ga_d 06Jul2010
 POTCAR:    PAW_PBE As 22Sep2009

 POTCAR:    PAW_PBE Ga_d 06Jul2010
   VRHFIN =Ga: s2p1

   TITEL  = PAW_PBE Ga_d 06Jul2010
   POMASS =   69.723; ZVAL   =   13.000    mass and valenz
   ENMAX  =  282.691; ENMIN  =  212.018 eV

 POTCAR:    PAW_PBE As 22Sep2009
   VRHFIN =As: s2p3

   TITEL  = PAW_PBE As 22Sep2009
   POMASS =   74.922; ZVAL   =    5.000    mass and valenz
   ENMAX  =  208.702; ENMIN  =  156.526 eV

  PAW_PBE Ga_d 06Jul2010                :
  PAW_PBE As 22Sep2009                  :

 POSCAR: GaAs (Madelung Handbook, RT)
  positions in direct lattice
  velocities in cartesian coordinates
 exchange correlation table for  LEXCH =       14
   RHO(1)=    0.500       N(1)  =     2000
   RHO(2)=  100.500       N(2)  =     4000

 ion  position               nearest neighbor table
   1  0.000  0.000  0.000-   2 2.45   2 2.45   2 2.45   2 2.45
   2  0.250  0.250  0.250-   1 2.45   1 2.45   1 2.45   1 2.45

  LATTYP: Found a face centered cubic cell.
 ALAT       =     5.6536000000

  Lattice vectors:

 A1 = (   2.8268000000,   2.8268000000,   0.0000000000)
 A2 = (   2.8268000000,   0.0000000000,  -2.8268000000)
 A3 = (   0.0000000000,   2.8268000000,  -2.8268000000)

Analysis of symmetry for initial positions (statically):
 Subroutine PRICEL returns:
 Original cell was already a primitive cell.

 Routine SETGRP: Setting up the symmetry group for a
 face centered cubic supercell.

 Subroutine GETGRP returns: Found 24 space group operations
 (whereof 24 operations were pure point group operations)
 out of a pool of 48 trial point group operations.

The static configuration has the point symmetry T_d .

Analysis of symmetry for dynamics (positions and initial velocities):
 Subroutine PRICEL returns:
 Original cell was already a primitive cell.

[...]

The dynamic configuration has the point symmetry T_d .

Analysis of structural, dynamic, and magnetic symmetry:
 Subroutine PRICEL returns:
 Original cell was already a primitive cell.

 Routine SETGRP: Setting up the symmetry group for a
 face centered cubic supercell.

 Subroutine GETGRP returns: Found  3 space group operations
 (whereof  3 operations were pure point group operations)
 out of a pool of 48 trial point group operations.

The (compounded) configuration has the point symmetry C_3 .

 Subroutine INISYM returns: Found  3 space group operations
 (whereof  3 operations are pure point group operations),
 and found     1 'primitive' translations

 KPOINTS: Automatically generated mesh : see 060 f
  k-points in reciprocal lattice
Space group operators:
 irot       det(A)        alpha          n_x          n_y          n_z        tau_x        tau_y        tau_z
    1     1.000000     0.000000     1.000000     0.000000     0.000000     0.000000     0.000000     0.000000
    2     1.000000   120.000000     0.577350     0.577350     0.577350     0.000000     0.000000     0.000000
    3     1.000000   120.000000    -0.577350    -0.577350    -0.577350     0.000000     0.000000     0.000000

 I would recommend the setting:
   dimension x,y,z NGX =    29 NGY =   29 NGZ =   29
 SYSTEM =  Name
 POSCAR =  GaAs (Madelung Handbook, RT)

 Startparameter for this run:
   NWRITE =      2    write-flag & timer
   PREC   = accura    normal or accurate (medium, high low for compatibility)
   ISTART =      0    job   : 0-new  1-cont  2-samecut
   ICHARG =     11    charge: 1-file 2-atom 10-const
   ISPIN  =      1    spin polarized calculation?
   LNONCOLLINEAR =      T non collinear calculations
   LSORBIT =      T    spin-orbit coupling
   INIWAV =      1    electr: 0-lowe 1-rand  2-diag
   LASPH  =      F    aspherical Exc in radial PAW
   METAGGA=      F    non-selfconsistent MetaGGA calc.

 Electronic Relaxation 1
   ENCUT  =  500.0 eV  36.75 Ry    6.06 a.u.   7.29  7.29  7.29*2*pi/ulx,y,z
   ENINI  =  500.0     initial cutoff
   ENAUG  =  490.7 eV  augmentation charge cutoff
   NELM   =     60;   NELMIN=  5; NELMDL=  0     # of ELM steps
   EDIFF  = 0.1E-05   stopping-criterion for ELM
   LREAL  =      F    real-space projection
   NLSPLINE    = F    spline interpolate recip. space projectors
   LCOMPAT=      F    compatible to vasp.4.4
   GGA_COMPAT  = T    GGA compatible to vasp.4.4-vasp.4.6
   LMAXPAW     = -100 max onsite density
   LMAXMIX     =    2 max onsite mixed and CHGCAR
   VOSKOWN=      0    Vosko Wilk Nusair interpolation
   ROPT   =    0.00000   0.00000
 Ionic relaxation
   EDIFFG = -.5E-02   stopping-criterion for IOM
   NSW    =      0    number of steps for IOM
   NBLOCK =      1;   KBLOCK =      1    inner block; outer block
   IBRION =     -1    ionic relax: 0-MD 1-quasi-New 2-CG
   NFREE  =      1    steps in history (QN), initial steepest desc. (CG)
   ISIF   =      3    stress and relaxation
   IWAVPR =     10    prediction:  0-non 1-charg 2-wave 3-comb
   ISYM   =      2    0-nonsym 1-usesym 2-fastsym
   LCORR  =      T    Harris-Foulkes like correction to forces

   POTIM  = 0.5000    time-step for ionic-motion
   TEIN   =    0.0    initial temperature
   TEBEG  =    0.0;   TEEND  =   0.0 temperature during run
   SMASS  =  -3.00    Nose mass-parameter (am)
   estimated Nose-frequenzy (Omega)   =  0.10E-29 period in steps =****** mass=  -0.365E-27a.u.
   SCALEE = 1.0000    scale energy and forces
   NPACO  =    256;   APACO  = 16.0  distance and # of slots for P.C.
   PSTRESS=    0.0 pullay stress

  Mass of Ions in am
   POMASS =  69.72 74.92
  Ionic Valenz
   ZVAL   =  13.00  5.00
  Atomic Wigner-Seitz radii
  virtual crystal weights
   VCA    =   1.00  1.00
   NELECT =      18.0000    total number of electrons
   NUPDOWN=      -1.0000    fix difference up-down

 DOS related values:
   EMIN   =  10.00;   EMAX   =-10.00  energy-range for DOS
   EFERMI =   0.00
   ISMEAR =     0;   SIGMA  =   0.01  broadening in eV -4-tet -1-fermi 0-gaus

 Electronic relaxation 2 (details)
   IALGO  =     38    algorithm
   LDIAG  =      T    sub-space diagonalisation (order eigenvalues)
   LSUBROT=      F    optimize rotation matrix (better conditioning)
   TURBO    =      0    0=normal 1=particle mesh
   IRESTART =      0    0=no restart 2=restart with 2 vectors
   NREBOOT  =      0    no. of reboots
   NMIN     =      0    reboot dimension
   EREF     =   0.00    reference energy to select bands
   IMIX   =      4    mixing-type and parameters
     AMIX     =   0.40;   BMIX     =  1.00
     AMIX_MAG =   1.60;   BMIX_MAG =  1.00
     AMIN     =   0.01
     WC   =   100.;   INIMIX=   1;  MIXPRE=   1;  MAXMIX= -45

 Intra band minimization:
   WEIMIN = 0.0000     energy-eigenvalue tresh-hold
   EBREAK =  0.89E-08  absolut break condition
   DEPER  =   0.30     relativ break condition

   TIME   =   0.40     timestep for ELM

  volume/ion in A,a.u.               =      22.59       152.43
  Fermi-wavevector in a.u.,A,eV,Ry     =   1.204649  2.276457 19.744497  1.451180
  Thomas-Fermi vector in A             =   2.340368

 Write flags
   LWAVE  =      T    write WAVECAR
   LCHARG =      T    write CHGCAR
   LVTOT  =      F    write LOCPOT, total local potential
   LVHAR  =      F    write LOCPOT, Hartree potential only
   LELF   =      F    write electronic localiz. function (ELF)
   LORBIT =     10    0 simple, 1 ext, 2 COOP (PROOUT)

 Dipole corrections
   LMONO  =      F    monopole corrections only (constant potential shift)
   LDIPOL =      F    correct potential (dipole corrections)
   IDIPOL =      0    1-x, 2-y, 3-z, 4-all directions
   EPSILON=  1.0000000 bulk dielectric constant

 Exchange correlation treatment:
   GGA     =    PS    GGA type
   VOSKOWN=      0    Vosko Wilk Nusair interpolation
   LHFCALC =     F    Hartree Fock is set to
   LHFONE  =     F    Hartree Fock one center treatment
   AEXX    =    0.0000 exact exchange contribution

 Linear response parameters
   LEPSILON=     F    determine dielectric tensor
   LRPA    =     F    only Hartree local field effects (RPA)
   LNABLA  =     F    use nabla operator in PAW spheres
   LVEL    =     F    velocity operator in full k-point grid
   LINTERFAST=   F  fast interpolation
   KINTER  =     0    interpolate to denser k-point grid
   CSHIFT  =0.1000    complex shift for real part using Kramers Kronig
   OMEGAMAX=  -1.0    maximum frequency
   DEG_THRESHOLD= 0.2000000E-02 threshold for treating states as degnerate
   RTIME   =    0.100 relaxation time in fs

 Orbital magnetization related:
   ORBITALMAG=     F  switch on orbital magnetization
   LCHIMAG   =     F  perturbation theory with respect to B field
   DQ        =  0.001000  dq finite difference perturbation B field

 Static calculation
 charge density and potential remain constant during run
 non collinear spin polarized calculation
 Variant of blocked Davidson
 Davidson routine will perform the subspace rotation
 perform sub-space diagonalisation
    after iterative eigenvector-optimisation
 no mixing
 using additional bands           19
 reciprocal scheme for non local part
 use partial core corrections
 calculate Harris-corrections to forces
   (improved forces if not selfconsistent)
 use gradient corrections
 WARNING: stress and forces are not correct
  (second derivative of E(xc) not defined)
 use of overlap-Matrix (Vanderbilt PP)
 Gauss-broadening in eV      SIGMA  =   0.01

  energy-cutoff  :      500.00
  volume of cell :       45.18
      direct lattice vectors                 reciprocal lattice vectors
     2.826800000  2.826800000  0.000000000     0.176878449  0.176878449  0.176878449
     2.826800000  0.000000000 -2.826800000     0.176878449 -0.176878449 -0.176878449
     0.000000000  2.826800000 -2.826800000    -0.176878449  0.176878449 -0.176878449

  length of vectors
     3.997698898  3.997698898  3.997698898     0.306362461  0.306362461  0.306362461

 k-points in units of 2pi/SCALE and weight: Automatically generated mesh : see 060 f
   0.00000000  0.00000000  0.00000000       0.005
   0.16666667  0.16666667  0.16666667       0.005
   0.33333333  0.33333333  0.33333333       0.005
   0.50000000  0.50000000  0.50000000       0.005
  -0.33333333 -0.33333333 -0.33333333       0.005
  -0.16666667 -0.16666667 -0.16666667       0.005
   0.16666667 -0.16666667 -0.16666667       0.014
   0.33333333  0.00000000  0.00000000       0.014
   0.50000000  0.16666667  0.16666667       0.014
   0.66666667  0.33333333  0.33333333       0.014
  -0.16666667 -0.50000000 -0.50000000       0.014
   0.00000000 -0.33333333 -0.33333333       0.014
   0.33333333 -0.33333333 -0.33333333       0.014
   0.50000000 -0.16666667 -0.16666667       0.014
   0.66666667  0.00000000  0.00000000       0.014
   0.83333333  0.16666667  0.16666667       0.014
   0.00000000 -0.66666667 -0.66666667       0.014
   0.16666667 -0.50000000 -0.50000000       0.014
   0.50000000 -0.50000000 -0.50000000       0.014
   0.66666667 -0.33333333 -0.33333333       0.014
   0.83333333 -0.16666667 -0.16666667       0.014
   1.00000000  0.00000000  0.00000000       0.014
   0.16666667 -0.83333333 -0.83333333       0.014
   0.33333333 -0.66666667 -0.66666667       0.014
[...]
 k-point 94 :   0.0311 0.0000 0.0311  plane waves:    2310
 k-point 95 :   0.0330 0.0000 0.0330  plane waves:    2310
 k-point 96 :   0.0348 0.0000 0.0348  plane waves:    2310
 k-point 97 :   0.0366 0.0000 0.0366  plane waves:    2310
 k-point 98 :   0.0385 0.0000 0.0385  plane waves:    2326
 k-point 99 :   0.0403 0.0000 0.0403  plane waves:    2326
 k-point ** :   0.0421 0.0000 0.0421  plane waves:    2326
 k-point ** :   0.0440 0.0000 0.0440  plane waves:    2334
 k-point ** :   0.0458 0.0000 0.0458  plane waves:    2334
 k-point ** :   0.0476 0.0000 0.0476  plane waves:    2334
 k-point ** :   0.0495 0.0000 0.0495  plane waves:    2334
 k-point ** :   0.0513 0.0000 0.0513  plane waves:    2334
 k-point ** :   0.0531 0.0000 0.0531  plane waves:    2334
 k-point ** :   0.0549 0.0000 0.0549  plane waves:    2334
 k-point ** :   0.0568 0.0000 0.0568  plane waves:    2326
 k-point ** :   0.0586 0.0000 0.0586  plane waves:    2326
 k-point ** :   0.0604 0.0000 0.0604  plane waves:    2326
 k-point ** :   0.0623 0.0000 0.0623  plane waves:    2326
 k-point ** :   0.0641 0.0000 0.0641  plane waves:    2334
 k-point ** :   0.0659 0.0000 0.0659  plane waves:    2334
 k-point ** :   0.0678 0.0000 0.0678  plane waves:    2334
 k-point ** :   0.0696 0.0000 0.0696  plane waves:    2334
 k-point ** :   0.0714 0.0000 0.0714  plane waves:    2318
 k-point ** :   0.0733 0.0000 0.0733  plane waves:    2318
 k-point ** :   0.0751 0.0000 0.0751  plane waves:    2326
 k-point ** :   0.0769 0.0000 0.0769  plane waves:    2326
 k-point ** :   0.0788 0.0000 0.0788  plane waves:    2326
 k-point ** :   0.0806 0.0000 0.0806  plane waves:    2326
 k-point ** :   0.0824 0.0000 0.0824  plane waves:    2326
 k-point ** :   0.0842 0.0000 0.0842  plane waves:    2326
 k-point ** :   0.0861 0.0000 0.0861  plane waves:    2326
 k-point ** :   0.0879 0.0000 0.0879  plane waves:    2326
 k-point ** :   0.0897 0.0000 0.0897  plane waves:    2326
 k-point ** :   0.0916 0.0000 0.0916  plane waves:    2326
 k-point ** :   0.0934 0.0000 0.0934  plane waves:    2310
 k-point ** :   0.0952 0.0000 0.0952  plane waves:    2310
 k-point ** :   0.0971 0.0000 0.0971  plane waves:    2310
 k-point ** :   0.0989 0.0000 0.0989  plane waves:    2310
 k-point ** :   0.1007 0.0000 0.1007  plane waves:    2310
 k-point ** :   0.1026 0.0000 0.1026  plane waves:    2310
 k-point ** :   0.1044 0.0000 0.1044  plane waves:    2310
 k-point ** :   0.1062 0.0000 0.1062  plane waves:    2310
 k-point ** :   0.1081 0.0000 0.1081  plane waves:    2310
 k-point ** :   0.1099 0.0000 0.1099  plane waves:    2310
 k-point ** :   0.1117 0.0000 0.1117  plane waves:    2310
 k-point ** :   0.1136 0.0000 0.1136  plane waves:    2310
 k-point ** :   0.1154 0.0000 0.1154  plane waves:    2310
 k-point ** :   0.1172 0.0000 0.1172  plane waves:    2310
 k-point ** :   0.1190 0.0000 0.1190  plane waves:    2310
 k-point ** :   0.1209 0.0000 0.1209  plane waves:    2310
 k-point ** :   0.1227 0.0000 0.1227  plane waves:    2310
 k-point ** :   0.1245 0.0000 0.1245  plane waves:    2310
 k-point ** :   0.1264 0.0000 0.1264  plane waves:    2310
 k-point ** :   0.1282 0.0000 0.1282  plane waves:    2310
 k-point ** :   0.1300 0.0000 0.1300  plane waves:    2310
 k-point ** :   0.1319 0.0000 0.1319  plane waves:    2310
 k-point ** :   0.1337 0.0000 0.1337  plane waves:    2310
 k-point ** :   0.1355 0.0000 0.1355  plane waves:    2310
 k-point ** :   0.1374 0.0000 0.1374  plane waves:    2310
 k-point ** :   0.1392 0.0000 0.1392  plane waves:    2310
 k-point ** :   0.1410 0.0000 0.1410  plane waves:    2310
 k-point ** :   0.1429 0.0000 0.1429  plane waves:    2310
 k-point ** :   0.1447 0.0000 0.1447  plane waves:    2310
 k-point ** :   0.1465 0.0000 0.1465  plane waves:    2310
 k-point ** :   0.1484 0.0000 0.1484  plane waves:    2310
 k-point ** :   0.1502 0.0000 0.1502  plane waves:    2310
[...]
 k-point ** :   0.4790 0.4790 0.4790  plane waves:    2316
 k-point ** :   0.4805 0.4805 0.4805  plane waves:    2316
 k-point ** :   0.4820 0.4820 0.4820  plane waves:    2316
 k-point ** :   0.4835 0.4835 0.4835  plane waves:    2316
 k-point ** :   0.4850 0.4850 0.4850  plane waves:    2316
 k-point ** :   0.4865 0.4865 0.4865  plane waves:    2316
 k-point ** :   0.4880 0.4880 0.4880  plane waves:    2316
 k-point ** :   0.4895 0.4895 0.4895  plane waves:    2316
 k-point ** :   0.4910 0.4910 0.4910  plane waves:    2316
 k-point ** :   0.4925 0.4925 0.4925  plane waves:    2316
 k-point ** :   0.4940 0.4940 0.4940  plane waves:    2316
 k-point ** :   0.4955 0.4955 0.4955  plane waves:    2316
 k-point ** :   0.4970 0.4970 0.4970  plane waves:    2316
 k-point ** :   0.4985 0.4985 0.4985  plane waves:    2316
 k-point ** :   0.5000 0.5000 0.5000  plane waves:    2316

 maximum and minimum number of plane-waves per node :       116       76

 maximum number of plane-waves:      2346
 maximum index in each direction:
   IXMAX=    7   IYMAX=    7   IZMAX=    7
   IXMIN=   -7   IYMIN=   -7   IZMIN=   -8

 NGX is ok and might be reduce to  30
 NGY is ok and might be reduce to  30
 WARNING: aliasing errors must be expected set NGZ to  32 to avoid them
 aliasing errors are usually negligible using standard VASP settings
 and one can safely disregard these warnings

 parallel 3D FFT for wavefunctions:
    minimum data exchange during FFTs selected (reduces bandwidth)
 parallel 3D FFT for charge:
    minimum data exchange during FFTs selected (reduces bandwidth)

 initial charge density was supplied:
 number of electron      17.9999995 magnetization      -0.0000224     -0.0000224     -0.0000224
 keeping initial charge density in first step

 Maximum index for augmentation-charges         1370 (set IRDMAX)

 First call to EWALD:  gamma=   0.498
 Maximum number of real-space cells 3x 3x 3
 Maximum number of reciprocal cells 3x 3x 3

 FEWALD executed in parallel

----------------------------------------- Iteration    1(   1)  ---------------------------------------

 eigenvalue-minimisations  : 71988
 total energy-change (2. order) : 0.1222871E+03  (-0.8317363E+03)
 number of electron      17.9999995 magnetization      -0.0000224     -0.0000224     -0.0000224
 augmentation part       17.9999995 magnetization      -0.0000224     -0.0000224     -0.0000224

 Free energy of the ion-electron system (eV)
  alpha Z        PSCENC =        60.29112737
  Ewald energy   TEWEN  =     -1265.50193243
  -Hartree energ DENC   =      -721.32157575
  -exchange      EXHF   =         0.00000000
  -V(xc)+E(xc)   XCENC  =        33.97896554
  PAW double counting   =      2009.37422466    -2322.39861535
  entropy T*S    EENTRO =        -0.00003571
  eigenvalues    EBANDS =         9.98114443
  atomic energy  EATOM  =      2317.88379254
  Solvation  Ediel_sol  =         0.00000000
  free energy    TOTEN  =       122.28709530 eV

  energy without entropy =      122.28713101  energy(sigma->0) =      122.28711316

[...]

 eigenvalue-minimisations  : 72148
 total energy-change (2. order) :-0.1160597E+03  (-0.1104324E+03)
 number of electron      17.9999995 magnetization      -0.0000224     -0.0000224     -0.0000224
 augmentation part       17.9999995 magnetization      -0.0000224     -0.0000224     -0.0000224

[...]

 total charge

# of ion     s       p       d       tot
  1        0.879   0.807   9.995  11.681
  2        1.209   1.596   0.031   2.836
tot        2.088   2.403  10.026  14.517

 magnetization (x)

[...]

 magnetization (y)

[...]

 magnetization (z)

[...]

----------------------------------------- Iteration    1(   8)  ---------------------------------------

 eigenvalue-minimisations  : 64648
 total energy-change (2. order) :-0.1034095E-06  (-0.1034147E-06)
 number of electron      17.9999995 magnetization      -0.0000224     -0.0000224     -0.0000224
 augmentation part       17.9999995 magnetization      -0.0000224     -0.0000224     -0.0000224

 Free energy of the ion-electron system (eV)
  alpha Z        PSCENC =        60.29112737
  Ewald energy   TEWEN  =     -1265.50193243
  -Hartree energ DENC   =      -721.32157575
  -exchange      EXHF   =         0.00000000
  -V(xc)+E(xc)   XCENC  =        33.97896554
  PAW double counting   =      2009.37422466    -2322.39861535
  entropy T*S    EENTRO =        -0.00000000
  eigenvalues    EBANDS =      -121.39037967
  atomic energy  EATOM  =      2317.88379254
  Solvation  Ediel_sol  =         0.00000000
  free energy    TOTEN  =        -9.08439309 eV

  energy without entropy =       -9.08439309  energy(sigma->0) =       -9.08439309

 average (electrostatic) potential at core
  the test charge radii are     1.0314  1.0621
  (the norm of the test charge is              1.0000)
       1 -66.2299       2 -50.1889

 E-fermi :   3.9673     XC(G=0):  -9.7687     alpha+bet : -9.7375

 k-point     1 :       0.0000    0.0000    0.0000
  band No.  band energies     occupation
      1     -11.2168      1.00000
      2     -11.2168      1.00000
      3     -11.2168      1.00000
      4     -11.2168      1.00000
      5     -10.7935      1.00000
      6     -10.7934      1.00000
      7     -10.7386      1.00000
      8     -10.7386      1.00000
      9     -10.7386      1.00000
     10     -10.7386      1.00000
     11      -8.9386      1.00000
     12      -8.9386      1.00000
     13       3.5916      1.00000
     14       3.5916      1.00000
     15       3.9228      1.00000
     16       3.9228      1.00000
     17       3.9228      1.00000
     18       3.9228      1.00000
     19       4.2680      0.00000
     20       4.2680      0.00000
     21       7.3717      0.00000
     22       7.3717      0.00000
     23       7.5577      0.00000
     24       7.5577      0.00000
     25       7.5577      0.00000
     26       7.5577      0.00000
     27      11.1999      0.00000
     28      11.2000      0.00000

[...]

 k-point  1218 :       0.5000    0.5000    0.5000
  band No.  band energies     occupation
      1     -11.2419      1.00000
      2     -11.2419      1.00000
      3     -11.2119      1.00000
      4     -11.2119      1.00000
      5     -10.8040      1.00000
      6     -10.8040      1.00000
      7     -10.7616      1.00000
      8     -10.7616      1.00000
      9     -10.7196      1.00000
     10     -10.7196      1.00000
     11      -7.1581      1.00000
     12      -7.1581      1.00000
     13      -2.8734      1.00000
     14      -2.8734      1.00000
     15       2.5601      1.00000
     16       2.5601      1.00000
     17       2.7629      1.00000
     18       2.7629      1.00000
     19       4.7378      0.00000
     20       4.7379      0.00000
     21       8.3499      0.00000
     22       8.3499      0.00000
     23       8.4312      0.00000
     24       8.4312      0.00000
     25      11.3912      0.00000
     26      11.3912      0.00000
     27      14.0869      0.00000
     28      14.0888      0.00000

 soft charge-density along one line, spin component           1
         0         1         2         3         4         5         6         7         8         9
 total charge-density along one line

[...]

 soft charge-density along one line, spin component           4
         0         1         2         3         4         5         6         7         8         9
 total charge-density along one line

------------------------ aborting loop because EDIFF is reached ----------------------------------------

[...]

  FORCE on cell =-STRESS in cart. coord.  units (eV):
  Direction    XX          YY          ZZ          XY          YZ          ZX
  Alpha Z    60.29113    60.29113    60.29113
  Ewald    -421.83412  -421.83412  -421.83412    -0.00000    -0.00000    -0.00000
  Hartree   240.44273   240.44273   240.44273    -0.00001    -0.00001    -0.00001
  E(xc)     -96.27623   -96.27623   -96.27623     0.00001    -0.00001    -0.00001
  Local     -60.87721   -60.87721   -60.87721     0.00012    -0.00010    -0.00010
  n-local    45.61304    47.62562    47.29146     0.36861    -0.76441     0.39580
  augment   120.07430   120.07430   120.07430    -0.00008     0.00008     0.00008
  Kinetic   109.28275   112.56080   112.43154     1.11271    -1.95457     0.84186
  Fock        0.00000     0.00000     0.00000     0.00000     0.00000     0.00000
  Total       0.08900     0.08900     0.08900    -0.00001    -0.00001    -0.00001
  in kB       3.15645     3.15645     3.15645    -0.00022    -0.00022    -0.00022

 VOLUME and BASIS-vectors are now :
  energy-cutoff  :      500.00
  volume of cell :       45.18
      direct lattice vectors                 reciprocal lattice vectors
     2.826800000  2.826800000  0.000000000     0.176878449  0.176878449  0.176878449
     2.826800000  0.000000000 -2.826800000     0.176878449 -0.176878449 -0.176878449
     0.000000000  2.826800000 -2.826800000    -0.176878449  0.176878449 -0.176878449

  length of vectors
     3.997698898  3.997698898  3.997698898     0.306362461  0.306362461  0.306362461

 FORCES acting on ions
    electron-ion (+dipol)            ewald-force                    non-local-force                 convergence-correction
   -.574E-05 -.574E-05 -.660E-05   -.206E-13 -.524E-14 0.156E-13   0.223E-04 0.223E-04 0.223E-04   -.260E-05 -.260E-05 -.261E-05
   0.121E-06 0.121E-06 0.825E-06   0.196E-13 0.339E-14 -.154E-13   -.258E-05 -.258E-05 -.258E-05   -.367E-06 -.367E-06 -.367E-06
   -.561E-05 -.561E-05 -.578E-05   -.109E-14 -.185E-14 0.200E-15   0.197E-04 0.197E-04 0.197E-04   -.297E-05 -.297E-05 -.297E-05

 POSITION                                       TOTAL-FORCE (eV/Angst)
      0.00000      0.00000      0.00000         0.000008      0.000008      0.000008
      1.41340      1.41340     -1.41340        -0.000008     -0.000008     -0.000008
    total drift:                                0.000011      0.000011      0.000011

  FREE ENERGIE OF THE ION-ELECTRON SYSTEM (eV)
  free  energy   TOTEN  =        -9.08439309 eV

  energy  without entropy=       -9.08439309  energy(sigma->0) =       -9.08439309

 writing wavefunctions

 Spin-Orbit-Coupling matrix elements

 Ion:    1  E_soc:     -0.0119812
 l=   1
     0.0000000    -0.0011592    -0.0011592
    -0.0011592     0.0000000    -0.0011592
    -0.0011592    -0.0011592     0.0000000
 l=   2
     0.0000000    -0.0001672     0.0000000    -0.0001672    -0.0006706
    -0.0001672     0.0000000    -0.0005029    -0.0001672    -0.0001676
     0.0000000    -0.0005029     0.0000000    -0.0005029     0.0000000
    -0.0001672    -0.0001672    -0.0005029     0.0000000    -0.0001676
    -0.0006706    -0.0001676     0.0000000    -0.0001676     0.0000000
 l=   3
     0.0000000     0.0000000     0.0000000     0.0000000     0.0000000     0.0000000     0.0000000
     0.0000000     0.0000000     0.0000000     0.0000000     0.0000000     0.0000000     0.0000000
     0.0000000     0.0000000     0.0000000     0.0000000     0.0000000     0.0000000     0.0000000
     0.0000000     0.0000000     0.0000000     0.0000000     0.0000000     0.0000000     0.0000000
     0.0000000     0.0000000     0.0000000     0.0000000     0.0000000     0.0000000     0.0000000
     0.0000000     0.0000000     0.0000000     0.0000000     0.0000000     0.0000000     0.0000000
     0.0000000     0.0000000     0.0000000     0.0000000     0.0000000     0.0000000     0.0000000

 Ion:    2  E_soc:     -0.0240291
 l=   1
     0.0000000    -0.0039972    -0.0039972
    -0.0039972     0.0000000    -0.0039972
    -0.0039972    -0.0039972     0.0000000
 l=   2
     0.0000000    -0.0000038     0.0000000    -0.0000038    -0.0000038
    -0.0000038     0.0000000    -0.0000029    -0.0000038    -0.0000010
     0.0000000    -0.0000029     0.0000000    -0.0000029     0.0000000
    -0.0000038    -0.0000038    -0.0000029     0.0000000    -0.0000010
    -0.0000038    -0.0000010     0.0000000    -0.0000010     0.0000000
 l=   3
     0.0000000     0.0000000     0.0000000     0.0000000     0.0000000     0.0000000     0.0000000
     0.0000000     0.0000000     0.0000000     0.0000000     0.0000000     0.0000000     0.0000000
     0.0000000     0.0000000     0.0000000     0.0000000     0.0000000     0.0000000     0.0000000
     0.0000000     0.0000000     0.0000000     0.0000000     0.0000000     0.0000000     0.0000000
     0.0000000     0.0000000     0.0000000     0.0000000     0.0000000     0.0000000     0.0000000
     0.0000000     0.0000000     0.0000000     0.0000000     0.0000000     0.0000000     0.0000000
     0.0000000     0.0000000     0.0000000     0.0000000     0.0000000     0.0000000     0.0000000

 total charge

[...]

 magnetization (x)

[...]

 magnetization (y)

[...]

 magnetization (z)

# of ion     s       p       d       tot
  1       -0.000   0.000   0.000  -0.000
  2        0.000  -0.000  -0.000  -0.000
tot       -0.000   0.000  -0.000  -0.000