 vasp.5.4.1 24Jun15 (build Nov 25 2015 16:39:35) complex

 executed on         CrayXC-Intel date 2016.11.02  17:35:39

 INCAR:
 POTCAR:    PAW_PBE Cd 06Sep2000
 POTCAR:    PAW_PBE Te 08Apr2002

 POTCAR:    PAW_PBE Cd 06Sep2000
   VRHFIN =Cd : s2 d10

   TITEL  = PAW_PBE Cd 06Sep2000
   POMASS =  112.411; ZVAL   =   12.000    mass and valenz
   ENMAX  =  274.336; ENMIN  =  205.752 eV

 POTCAR:    PAW_PBE Te 08Apr2002
   VRHFIN =Te: s2p4

   TITEL  = PAW_PBE Te 08Apr2002
   POMASS =  127.600; ZVAL   =    6.000    mass and valenz
   ENMAX  =  174.982; ENMIN  =  131.236 eV

  PAW_PBE Cd 06Sep2000                  :
  PAW_PBE Te 08Apr2002                  :

 POSCAR: CdTe (ICSD, 295K, Rabadanov 2001)
  positions in direct lattice
 exchange correlation table for  LEXCH =        8
   RHO(1)=    0.500       N(1)  =     2000
   RHO(2)=  100.500       N(2)  =     4000

 ion  position               nearest neighbor table
   1  0.000  0.000  0.000-   2 2.81   2 2.81   2 2.81   2 2.81
   2  0.250  0.250  0.250-   1 2.81   1 2.81   1 2.81   1 2.81

IMPORTANT INFORMATION: All symmetrisations will be switched off!
NOSYMM: (Re-)initialisation of all symmetry stuff for point group C_1.

 KPOINTS: Automatically generated mesh
  k-points in reciprocal lattice
Space group operators:
 irot       det(A)        alpha          n_x          n_y          n_z        tau_x        tau_y        tau_z
    1     1.000000     0.000000     1.000000     0.000000     0.000000     0.000000     0.000000     0.000000

 Subroutine IBZKPT_HF returns following result:

 Found    465 k-points in 1st BZ
 the following    465 k-points will be used (e.g. in the exchange kernel)
 Following reciprocal coordinates:   # in IRBZ
  0.000000  0.000000  0.000000    0.00462963   1 t-inv F
  0.166667  0.000000  0.000000    0.00462963   2 t-inv F
  0.333333  0.000000  0.000000    0.00462963   3 t-inv F
  0.500000  0.000000  0.000000    0.00462963   4 t-inv F
 -0.333333  0.000000  0.000000    0.00462963   5 t-inv F
 -0.166667  0.000000  0.000000    0.00462963   6 t-inv F
  0.000000  0.166667  0.000000    0.00462963   7 t-inv F
  0.166667  0.166667  0.000000    0.00462963   8 t-inv F
  0.333333  0.166667  0.000000    0.00462963   9 t-inv F
  0.500000  0.166667  0.000000    0.00462963  10 t-inv F
 -0.333333  0.166667  0.000000    0.00462963  11 t-inv F
 -0.166667  0.166667  0.000000    0.00462963  12 t-inv F
  0.000000  0.333333  0.000000    0.00462963  13 t-inv F
  0.166667  0.333333  0.000000    0.00462963  14 t-inv F
  0.333333  0.333333  0.000000    0.00462963  15 t-inv F
  0.500000  0.333333  0.000000    0.00462963  16 t-inv F
 -0.333333  0.333333  0.000000    0.00462963  17 t-inv F
 -0.166667  0.333333  0.000000    0.00462963  18 t-inv F
  0.000000  0.500000  0.000000    0.00462963  19 t-inv F
  0.166667  0.500000  0.000000    0.00462963  20 t-inv F
  0.333333  0.500000  0.000000    0.00462963  21 t-inv F
  0.500000  0.500000  0.000000    0.00462963  22 t-inv F
 -0.333333  0.500000  0.000000    0.00462963  23 t-inv F
 -0.166667  0.500000  0.000000    0.00462963  24 t-inv F
  0.000000 -0.333333  0.000000    0.00462963  25 t-inv F
  0.166667 -0.333333  0.000000    0.00462963  26 t-inv F
  0.333333 -0.333333  0.000000    0.00462963  27 t-inv F
  0.500000 -0.333333  0.000000    0.00462963  28 t-inv F
 -0.333333 -0.333333  0.000000    0.00462963  29 t-inv F
 -0.166667 -0.333333  0.000000    0.00462963  30 t-inv F
  0.000000 -0.166667  0.000000    0.00462963  31 t-inv F
  0.166667 -0.166667  0.000000    0.00462963  32 t-inv F
  0.333333 -0.166667  0.000000    0.00462963  33 t-inv F
  0.500000 -0.166667  0.000000    0.00462963  34 t-inv F
 -0.333333 -0.166667  0.000000    0.00462963  35 t-inv F
 -0.166667 -0.166667  0.000000    0.00462963  36 t-inv F
  0.000000  0.000000  0.166667    0.00462963  37 t-inv F
  0.166667  0.000000  0.166667    0.00462963  38 t-inv F
  0.333333  0.000000  0.166667    0.00462963  39 t-inv F
  0.500000  0.000000  0.166667    0.00462963  40 t-inv F
 -0.333333  0.000000  0.166667    0.00462963  41 t-inv F
 -0.166667  0.000000  0.166667    0.00462963  42 t-inv F
  0.000000  0.166667  0.166667    0.00462963  43 t-inv F
  0.166667  0.166667  0.166667    0.00462963  44 t-inv F
  0.333333  0.166667  0.166667    0.00462963  45 t-inv F
  0.500000  0.166667  0.166667    0.00462963  46 t-inv F
 -0.333333  0.166667  0.166667    0.00462963  47 t-inv F
 -0.166667  0.166667  0.166667    0.00462963  48 t-inv F
  0.000000  0.333333  0.166667    0.00462963  49 t-inv F
  0.166667  0.333333  0.166667    0.00462963  50 t-inv F
  0.333333  0.333333  0.166667    0.00462963  51 t-inv F
  0.500000  0.333333  0.166667    0.00462963  52 t-inv F
 -0.333333  0.333333  0.166667    0.00462963  53 t-inv F
 -0.166667  0.333333  0.166667    0.00462963  54 t-inv F
  0.000000  0.500000  0.166667    0.00462963  55 t-inv F
  0.166667  0.500000  0.166667    0.00462963  56 t-inv F
  0.333333  0.500000  0.166667    0.00462963  57 t-inv F
  0.500000  0.500000  0.166667    0.00462963  58 t-inv F
 -0.333333  0.500000  0.166667    0.00462963  59 t-inv F
 -0.166667  0.500000  0.166667    0.00462963  60 t-inv F
[...]
  0.404110  0.404110  0.404110    0.00000000 451 t-inv F
  0.410959  0.410959  0.410959    0.00000000 452 t-inv F
  0.417808  0.417808  0.417808    0.00000000 453 t-inv F
  0.424658  0.424658  0.424658    0.00000000 454 t-inv F
  0.431507  0.431507  0.431507    0.00000000 455 t-inv F
  0.438356  0.438356  0.438356    0.00000000 456 t-inv F
  0.445205  0.445205  0.445205    0.00000000 457 t-inv F
  0.452055  0.452055  0.452055    0.00000000 458 t-inv F
  0.458904  0.458904  0.458904    0.00000000 459 t-inv F
  0.465753  0.465753  0.465753    0.00000000 460 t-inv F
  0.472603  0.472603  0.472603    0.00000000 461 t-inv F
  0.479452  0.479452  0.479452    0.00000000 462 t-inv F
  0.486301  0.486301  0.486301    0.00000000 463 t-inv F
  0.493151  0.493151  0.493151    0.00000000 464 t-inv F
  0.500000  0.500000  0.500000    0.00000000 465 t-inv F

 I would recommend the setting:
   dimension x,y,z NGX =    33 NGY =   33 NGZ =   33
 SYSTEM =  Hybrid non self-consistent (band struct
 POSCAR =  CdTe (ICSD, 295K, Rabadanov 2001)

 Startparameter for this run:
   NWRITE =      2    write-flag & timer
   PREC   = accura    normal or accurate (medium, high low for compatibility)
   ISTART =      0    job   : 0-new  1-cont  2-samecut
   ICHARG =      2    charge: 1-file 2-atom 10-const
   ISPIN  =      1    spin polarized calculation?
   LNONCOLLINEAR =      T non collinear calculations
   LSORBIT =      T    spin-orbit coupling
   INIWAV =      1    electr: 0-lowe 1-rand  2-diag
   LASPH  =      F    aspherical Exc in radial PAW
   METAGGA=      F    non-selfconsistent MetaGGA calc.

 Electronic Relaxation 1
   ENCUT  =  500.0 eV  36.75 Ry    6.06 a.u.   8.36  8.36  8.36*2*pi/ulx,y,z
   ENINI  =  500.0     initial cutoff
   ENAUG  =  456.1 eV  augmentation charge cutoff
   NELM   =     60;   NELMIN=  5; NELMDL=  0     # of ELM steps
   EDIFF  = 0.1E-05   stopping-criterion for ELM
   LREAL  =      F    real-space projection
   NLSPLINE    = F    spline interpolate recip. space projectors
   LCOMPAT=      F    compatible to vasp.4.4
   GGA_COMPAT  = T    GGA compatible to vasp.4.4-vasp.4.6
   LMAXPAW     = -100 max onsite density
   LMAXMIX     =    2 max onsite mixed and CHGCAR
   VOSKOWN=      0    Vosko Wilk Nusair interpolation
   ROPT   =    0.00000   0.00000
 Ionic relaxation
   EDIFFG = -.5E-02   stopping-criterion for IOM
   NSW    =      0    number of steps for IOM
   NBLOCK =      1;   KBLOCK =      1    inner block; outer block
   IBRION =     -1    ionic relax: 0-MD 1-quasi-New 2-CG
   NFREE  =      0    steps in history (QN), initial steepest desc. (CG)
   ISIF   =      3    stress and relaxation
   IWAVPR =     10    prediction:  0-non 1-charg 2-wave 3-comb
   ISYM   =      0    0-nonsym 1-usesym 2-fastsym
   LCORR  =      T    Harris-Foulkes like correction to forces

   POTIM  = 0.5000    time-step for ionic-motion
   TEIN   =    0.0    initial temperature
   TEBEG  =    0.0;   TEEND  =   0.0 temperature during run
   SMASS  =  -3.00    Nose mass-parameter (am)
   estimated Nose-frequenzy (Omega)   =  0.10E-29 period in steps =****** mass=  -0.480E-27a.u.
   SCALEE = 1.0000    scale energy and forces
   NPACO  =    256;   APACO  = 16.0  distance and # of slots for P.C.
   PSTRESS=    0.0 pullay stress

  Mass of Ions in am
   POMASS = 112.41127.60
  Ionic Valenz
   ZVAL   =  12.00  6.00
  Atomic Wigner-Seitz radii
  virtual crystal weights
   VCA    =   1.00  1.00
   NELECT =      18.0000    total number of electrons
   NUPDOWN=      -1.0000    fix difference up-down

 DOS related values:
   EMIN   =  10.00;   EMAX   =-10.00  energy-range for DOS
   EFERMI =   0.00
   ISMEAR =     0;   SIGMA  =   0.01  broadening in eV -4-tet -1-fermi 0-gaus

 Electronic relaxation 2 (details)
   IALGO  =     58    algorithm
   LDIAG  =      T    sub-space diagonalisation (order eigenvalues)
   LSUBROT=      F    optimize rotation matrix (better conditioning)
   TURBO    =      0    0=normal 1=particle mesh
   IRESTART =      0    0=no restart 2=restart with 2 vectors
   NREBOOT  =      0    no. of reboots
   NMIN     =      0    reboot dimension
   EREF     =   0.00    reference energy to select bands
   IMIX   =      4    mixing-type and parameters
     AMIX     =   0.40;   BMIX     =  1.00
     AMIX_MAG =   1.60;   BMIX_MAG =  1.00
     AMIN     =   0.10
     WC   =   100.;   INIMIX=   1;  MIXPRE=   1;  MAXMIX= -45

 Intra band minimization:
   WEIMIN = 0.0000     energy-eigenvalue tresh-hold
   EBREAK =  0.52E-08  absolut break condition
   DEPER  =   0.30     relativ break condition

   TIME   =   0.40     timestep for ELM

  volume/ion in A,a.u.               =      34.05       229.81
  Fermi-wavevector in a.u.,A,eV,Ry     =   1.050581  1.985311 15.017042  1.103721
  Thomas-Fermi vector in A             =   2.185590

 Write flags
   LWAVE  =      T    write WAVECAR
   LCHARG =      T    write CHGCAR
   LVTOT  =      F    write LOCPOT, total local potential
   LVHAR  =      F    write LOCPOT, Hartree potential only
   LELF   =      F    write electronic localiz. function (ELF)
   LORBIT =     10    0 simple, 1 ext, 2 COOP (PROOUT)

 Dipole corrections
   LMONO  =      F    monopole corrections only (constant potential shift)
   LDIPOL =      F    correct potential (dipole corrections)
   IDIPOL =      0    1-x, 2-y, 3-z, 4-all directions
   EPSILON=  1.0000000 bulk dielectric constant

 Core level calculations are selected ICORELEVEL =  1
 Exchange correlation treatment:
   GGA     =    --    GGA type
   VOSKOWN=      0    Vosko Wilk Nusair interpolation
   EXXOEP  =     0    0=HF, 1=EXX-LHF (local Hartree Fock) 2=EXX OEP
   LHFCALC =     T    Hartree Fock is set to
   LSYMGRAD=     F    symmetrize gradient (conserves proper symmetry)
   PRECFOCK=fast      Normal, Fast or Accurate (Low or Medium for compatibility)
   LRHFCALC=     F    long range Hartree Fock
   LRSCOR  =     F    long range correlation only (use DFT for short range part)
   LTHOMAS =     F    Thomas Fermi screening in HF
   LMODELHF=     F    short range full HF, long range fraction AEXX
[...]
 k-point ** :   0.0000 0.5000 0.5000  plane waves:    3448
 k-point ** :   0.1667 0.5000 0.5000  plane waves:    3446
 k-point ** :   0.3333 0.5000 0.5000  plane waves:    3478
 k-point ** :   0.5000 0.5000 0.5000  plane waves:    3436
 k-point ** :  -0.3333 0.5000 0.5000  plane waves:    3478
 k-point ** :  -0.1667 0.5000 0.5000  plane waves:    3446
 k-point ** :   0.0000-0.3333 0.5000  plane waves:    3446
 k-point ** :   0.1667-0.3333 0.5000  plane waves:    3444
 k-point ** :   0.3333-0.3333 0.5000  plane waves:    3452
 k-point ** :   0.5000-0.3333 0.5000  plane waves:    3478
 k-point ** :  -0.3333-0.3333 0.5000  plane waves:    3464
 k-point ** :  -0.1667-0.3333 0.5000  plane waves:    3448
 k-point ** :   0.0000-0.1667 0.5000  plane waves:    3478
 k-point ** :   0.1667-0.1667 0.5000  plane waves:    3452
 k-point ** :   0.3333-0.1667 0.5000  plane waves:    3444
 k-point ** :   0.5000-0.1667 0.5000  plane waves:    3446
 k-point ** :  -0.3333-0.1667 0.5000  plane waves:    3448
 k-point ** :  -0.1667-0.1667 0.5000  plane waves:    3464
 k-point ** :   0.0000 0.0000-0.3333  plane waves:    3460
 k-point ** :   0.1667 0.0000-0.3333  plane waves:    3464
 k-point ** :   0.3333 0.0000-0.3333  plane waves:    3452
 k-point ** :   0.5000 0.0000-0.3333  plane waves:    3446
 k-point ** :  -0.3333 0.0000-0.3333  plane waves:    3456
 k-point ** :  -0.1667 0.0000-0.3333  plane waves:    3458
 k-point ** :   0.0000 0.1667-0.3333  plane waves:    3464
 k-point ** :   0.1667 0.1667-0.3333  plane waves:    3478
 k-point ** :   0.3333 0.1667-0.3333  plane waves:    3452
 k-point ** :   0.5000 0.1667-0.3333  plane waves:    3444
 k-point ** :  -0.3333 0.1667-0.3333  plane waves:    3446
 k-point ** :  -0.1667 0.1667-0.3333  plane waves:    3448
 k-point ** :   0.0000 0.3333-0.3333  plane waves:    3452
 k-point ** :   0.1667 0.3333-0.3333  plane waves:    3452
 k-point ** :   0.3333 0.3333-0.3333  plane waves:    3452
[...]
 k-point ** :   0.4041 0.4041 0.4041  plane waves:    3442
 k-point ** :   0.4110 0.4110 0.4110  plane waves:    3442
 k-point ** :   0.4178 0.4178 0.4178  plane waves:    3454
 k-point ** :   0.4247 0.4247 0.4247  plane waves:    3454
 k-point ** :   0.4315 0.4315 0.4315  plane waves:    3448
 k-point ** :   0.4384 0.4384 0.4384  plane waves:    3448
 k-point ** :   0.4452 0.4452 0.4452  plane waves:    3460
 k-point ** :   0.4521 0.4521 0.4521  plane waves:    3436
 k-point ** :   0.4589 0.4589 0.4589  plane waves:    3436
 k-point ** :   0.4658 0.4658 0.4658  plane waves:    3436
 k-point ** :   0.4726 0.4726 0.4726  plane waves:    3436
 k-point ** :   0.4795 0.4795 0.4795  plane waves:    3436
 k-point ** :   0.4863 0.4863 0.4863  plane waves:    3436
 k-point ** :   0.4932 0.4932 0.4932  plane waves:    3436
 k-point ** :   0.5000 0.5000 0.5000  plane waves:    3436

 maximum and minimum number of plane-waves per node :      3550     3428

 maximum number of plane-waves:      3550
 maximum index in each direction:
   IXMAX=    8   IYMAX=    8   IZMAX=    8
   IXMIN=   -8   IYMIN=   -8   IZMIN=   -9

 NGX is ok and might be reduce to  34
 NGY is ok and might be reduce to  34
 NGZ is ok and might be reduce to  36

 serial   3D FFT for wavefunctions
 parallel 3D FFT for charge:
    minimum data exchange during FFTs selected (reduces bandwidth)

 FFT grid for exact exchange (Hartree Fock)
  NGX = 20; NGY = 20; NGZ = 20

 Radii for the augmentation spheres in the non-local exchange
 for species   1 augmentation radius   1.444 (default was   1.070)
       energy cutoff for augmentation   2000.0
 for species   2 augmentation radius   1.606 (default was   1.190)
       energy cutoff for augmentation   2000.0
 Maximum index for augmentation-charges in exchange         2093
  SETUP_FOCK is finished

 Broyden mixing: mesh for mixing (old mesh)
   NGX = 17   NGY = 17   NGZ = 17
  (NGX  = 72   NGY  = 72   NGZ  = 72)
  gives a total of   4913 points

 initial charge density was supplied:
 charge density of overlapping atoms calculated
 number of electron      18.0000000 magnetization       2.0000000      2.0000000      2.0000000
 charge density for first step will be calculated from the start-wavefunctions

 Maximum index for augmentation-charges         1676 (set IRDMAX)

 First call to EWALD:  gamma=   0.434
 Maximum number of real-space cells 3x 3x 3
 Maximum number of reciprocal cells 3x 3x 3

 FEWALD executed in parallel

----------------------------------------- Iteration    1(   1)  ---------------------------------------

 eigenvalue-minimisations  : 44664
 total energy-change (2. order) : 0.1264733E+03  (-0.9486425E+03)
 number of electron      18.0000000 magnetization       2.0000000      2.0000000      2.0000000
 augmentation part       18.0000000 magnetization       2.0000000      2.0000000      2.0000000

 Free energy of the ion-electron system (eV)
  alpha Z        PSCENC =        50.17222034
  Ewald energy   TEWEN  =     -1044.83138452
  -Hartree energ DENC   =      -510.12304479
  -exchange      EXHF   =         0.00000000
  -V(xc)+E(xc)   XCENC  =       -19.42407828
  PAW double counting   =      1400.74953007    -1338.33597297
  entropy T*S    EENTRO =        -0.00004659
  eigenvalues    EBANDS =        73.96803907
  atomic energy  EATOM  =      1514.29801353
  free energy    TOTEN  =       126.47327585 eV

  energy without entropy =      126.47332244  energy(sigma->0) =      126.47329914
  exchange ACFDT corr.  =         0.00000000  see jH, gK, PRB 81, 115126

[...]

 eigenvalue-minimisations  : 59880
 total energy-change (2. order) :-0.9524466E+02  (-0.9040421E+02)
 number of electron      18.0000000 magnetization       2.0000000      2.0000000      2.0000000
 augmentation part       18.0000000 magnetization       2.0000000      2.0000000      2.0000000

[...]

----------------------------------------- Iteration    1(  17)  ---------------------------------------

 eigenvalue-minimisations  :     0
 total energy-change (2. order) :-0.4625601E-06  (-0.2441583E-06)
 number of electron      17.9999996 magnetization      -0.0000010     -0.0000010     -0.0000010
 augmentation part        4.6443465 magnetization       0.0000083      0.0000083      0.0000083

 Free energy of the ion-electron system (eV)
  alpha Z        PSCENC =        50.17222034
  Ewald energy   TEWEN  =     -1044.83138452
  -Hartree energ DENC   =      -506.36801900
  -exchange      EXHF   =        34.61199448
  -V(xc)+E(xc)   XCENC  =       -19.63217716
  PAW double counting   =      3444.98541847    -3381.60177677
  entropy T*S    EENTRO =        -0.00000000
  eigenvalues    EBANDS =       -97.77976859
  atomic energy  EATOM  =      1514.29801353
  free energy    TOTEN  =        -6.14547923 eV

  energy without entropy =       -6.14547923  energy(sigma->0) =       -6.14547923
  exchange ACFDT corr.  =         0.00000000  see jH, gK, PRB 81, 115126

  average scaling for gradient   0.9585

 the core state eigenenergies are
   1-  1s    -32.6559  2s    -32.5062  2p    -32.5062  3s    -32.5062  3p    -32.5062
       3d    -32.5062  4s    -32.5062  4p    -32.5062
   2-  1s    -87.4902  2s    -87.6777  2p    -87.6777  3s    -87.6777  3p    -87.6777
       3d    -87.6777  4s    -87.6777  4p    -87.6777  4d    -87.6777

 E-fermi :   2.2657     XC(G=0):  -7.1635     alpha+bet : -7.4227

 k-point     1 :       0.0000    0.0000    0.0000
  band No.  band energies     occupation
      1     -10.3032      1.00000
      2     -10.3030      1.00000
      3      -8.0895      1.00000
      4      -8.0895      1.00000
      5      -8.0895      1.00000
      6      -8.0895      1.00000
      7      -7.4979      1.00000
      8      -7.4979      1.00000
      9      -7.2886      1.00000
     10      -7.2886      1.00000
     11      -7.2885      1.00000
     12      -7.2885      1.00000
     13       1.2398      1.00000
     14       1.2398      1.00000
     15       2.1183      1.00000
     16       2.1184      1.00000
     17       2.1185      1.00000
     18       2.1185      1.00000
     19       3.3751      0.00000
     20       3.3753      0.00000
     21       7.0786      0.00000
     22       7.0786      0.00000
     23       7.4064      0.00000
     24       7.4064      0.00000
     25       7.4065      0.00000
     26       7.4065      0.00000
     27      10.3332      0.00000
     28      10.3332      0.00000
     29      12.1737      0.00000
     30      12.1737      0.00000
     31      12.1737      0.00000
     32      12.1737      0.00000
     33      12.8973      0.00000
     34      12.8973      0.00000
     35      12.9529      0.00000
     36      12.9529      0.00000
     37      12.9529      0.00000
     38      12.9530      0.00000
     39      15.2059      0.00000
     40      15.2060      0.00000
     41      23.0990      0.00000
     42      23.0992      0.00000
     43      23.0996      0.00000
     44      23.1011      0.00000
     45      23.1183      0.00000
     46      23.5126      0.00000
     47      23.9691      0.00000
     48      23.9991      0.00000

[...]

 k-point   465 :       0.5000    0.5000    0.5000
  band No.  band energies     occupation
      1      -9.9219      1.00000
      2      -9.9217      1.00000
      3      -8.0709      1.00000
      4      -8.0709      1.00000
      5      -7.7973      1.00000
      6      -7.7972      1.00000
      7      -7.3967      1.00000
      8      -7.3967      1.00000
      9      -7.2347      1.00000
     10      -7.2347      1.00000
     11      -6.8925      1.00000
     12      -6.8925      1.00000
     13      -2.9266      1.00000
     14      -2.9266      1.00000
     15       0.7262      1.00000
     16       0.7262      1.00000
     17       1.2646      1.00000
     18       1.2647      1.00000
     19       4.4409      0.00000
     20       4.4410      0.00000
     21       7.8169      0.00000
     22       7.8169      0.00000
     23       7.9418      0.00000
     24       7.9418      0.00000
     25       9.8078      0.00000
     26       9.8079      0.00000
     27      11.5686      0.00000
     28      11.5685      0.00000
     29      13.1539      0.00000
     30      13.1539      0.00000
     31      13.3335      0.00000
     32      13.3335      0.00000
     33      14.3479      0.00000
     34      14.3480      0.00000
     35      14.5386      0.00000
     36      14.5386      0.00000
     37      14.6397      0.00000
     38      14.6397      0.00000
     39      19.1265      0.00000
     40      19.1265      0.00000
     41      20.5763      0.00000
     42      20.5764      0.00000
     43      20.6273      0.00000
     44      20.6274      0.00000
     45      21.2962      0.00000
     46      21.2990      0.00000
     47      21.5680      0.00000
     48      21.5749      0.00000

 soft charge-density along one line, spin component           1
         0         1         2         3         4         5         6         7         8         9
 total charge-density along one line

[...]

 soft charge-density along one line, spin component           4
         0         1         2         3         4         5         6         7         8         9
 total charge-density along one line

------------------------ aborting loop because EDIFF is reached ----------------------------------------

 total charge

# of ion     s       p       d       tot
  1        0.443   0.313   9.574  10.330
  2        1.309   2.229   0.020   3.558
tot        1.752   2.542   9.594  13.888

 magnetization (x)

[...]

 magnetization (y)

[...]

 magnetization (z)

[...]

  FORCE on cell =-STRESS in cart. coord.  units (eV):
  Direction    XX          YY          ZZ          XY          YZ          ZX
  Alpha Z    50.17222    50.17222    50.17222
  Ewald    -348.27726  -348.27726  -348.27726     0.00000     0.00000     0.00000
  Hartree   168.79075   168.79075   168.79075    -0.00000     0.00000     0.00000
  E(xc)     -66.48166   -66.48166   -66.48166    -0.00000     0.00000     0.00000
  Local     -16.97180   -16.97181   -16.97181     0.00002    -0.00001    -0.00001
  n-local    65.72613    65.72613    65.72613    -0.00000     0.00001     0.00001
  augment    -0.17052    -0.17052    -0.17052    -0.00001     0.00001     0.00001
  Kinetic   203.20941   203.20941   203.20941    -0.00000    -0.00000    -0.00000
  Fock            NaN         NaN         NaN         NaN         NaN         NaN
  Total           NaN         NaN         NaN         NaN         NaN         NaN
  in kB           NaN         NaN         NaN         NaN         NaN         NaN

 VOLUME and BASIS-vectors are now :
  energy-cutoff  :      500.00
  volume of cell :       68.11
      direct lattice vectors                 reciprocal lattice vectors
     3.241350000  3.241350000  0.000000000     0.154256714  0.154256714  0.154256714
     3.241350000  0.000000000 -3.241350000     0.154256714 -0.154256714 -0.154256714
     0.000000000  3.241350000 -3.241350000    -0.154256714  0.154256714 -0.154256714

  length of vectors
     4.583961130  4.583961130  4.583961130     0.267180466  0.267180466  0.267180466

 FORCES acting on ions:
    Electron-Ion                     Ewald-Force                    Non-Local-Force
   -.253E-05 -.541E-05 -.222E-05   -.744E-14 -.454E-14 0.998E-14   -.104E-05 0.203E-05 0.140E-05
   -.837E-06 -.120E-05 -.977E-06   0.759E-14 0.606E-14 -.102E-13   0.262E-05 0.252E-05 -.154E-05
   -.404E-05 -.736E-05 -.278E-05   0.152E-15 0.152E-14 -.238E-15   0.158E-05 0.455E-05 -.143E-06

 POSITION                                       TOTAL-FORCE (eV/Angst)
      0.00000      0.00000      0.00000              NaN           NaN           NaN
      1.62068      1.62068     -1.62068              NaN           NaN           NaN
    total drift:                                     NaN           NaN           NaN

  FREE ENERGIE OF THE ION-ELECTRON SYSTEM (eV)
  free  energy   TOTEN  =        -6.14547923 eV

  energy  without entropy=       -6.14547923  energy(sigma->0) =       -6.14547923

 writing wavefunctions

 Spin-Orbit-Coupling matrix elements

 Ion:    1  E_soc:     -0.0579408
 l=   1
     0.0000000    -0.0028629    -0.0028629
    -0.0028629     0.0000000    -0.0028628
    -0.0028629    -0.0028628     0.0000000
 l=   2
     0.0000000    -0.0013786     0.0000000    -0.0013786    -0.0054153
    -0.0013786     0.0000000    -0.0040614    -0.0013786    -0.0013538
     0.0000000    -0.0040614     0.0000000    -0.0040615     0.0000000
    -0.0013786    -0.0013786    -0.0040615     0.0000000    -0.0013538
    -0.0054153    -0.0013538     0.0000000    -0.0013538     0.0000000
 l=   3
     0.0000000     0.0000000     0.0000000     0.0000000     0.0000000     0.0000000     0.0000000
     0.0000000     0.0000000     0.0000000     0.0000000     0.0000000     0.0000000     0.0000000
     0.0000000     0.0000000     0.0000000     0.0000000     0.0000000     0.0000000     0.0000000
     0.0000000     0.0000000     0.0000000     0.0000000     0.0000000     0.0000000     0.0000000
     0.0000000     0.0000000     0.0000000     0.0000000     0.0000000     0.0000000     0.0000000
     0.0000000     0.0000000     0.0000000     0.0000000     0.0000000     0.0000000     0.0000000
     0.0000000     0.0000000     0.0000000     0.0000000     0.0000000     0.0000000     0.0000000

 Ion:    2  E_soc:     -0.1832065
 l=   1
     0.0000000    -0.0304666    -0.0304666
    -0.0304666     0.0000000    -0.0304665
    -0.0304666    -0.0304665     0.0000000
 l=   2
     0.0000000    -0.0000307     0.0000000    -0.0000307    -0.0000371
    -0.0000307     0.0000000    -0.0000278    -0.0000307    -0.0000093
     0.0000000    -0.0000278     0.0000000    -0.0000278     0.0000000
    -0.0000307    -0.0000307    -0.0000278     0.0000000    -0.0000093
    -0.0000371    -0.0000093     0.0000000    -0.0000093     0.0000000
 l=   3
     0.0000000     0.0000000     0.0000000     0.0000000     0.0000000     0.0000000     0.0000000
     0.0000000     0.0000000     0.0000000     0.0000000     0.0000000     0.0000000     0.0000000
     0.0000000     0.0000000     0.0000000     0.0000000     0.0000000     0.0000000     0.0000000
     0.0000000     0.0000000     0.0000000     0.0000000     0.0000000     0.0000000     0.0000000
     0.0000000     0.0000000     0.0000000     0.0000000     0.0000000     0.0000000     0.0000000
     0.0000000     0.0000000     0.0000000     0.0000000     0.0000000     0.0000000     0.0000000
     0.0000000     0.0000000     0.0000000     0.0000000     0.0000000     0.0000000     0.0000000

 total charge

[...]

 magnetization (x)

[...]

 magnetization (y)

[...]

 magnetization (z)

# of ion     s       p       d       tot
  1       -0.000  -0.000   0.000  -0.000
  2        0.000   0.000  -0.000   0.000
tot       -0.000   0.000   0.000   0.000