 vasp.5.4.1 24Jun15 (build Nov 25 2015 16:39:35) complex

 executed on         CrayXC-Intel date 2016.11.02  17:30:45

 INCAR:
 POTCAR:    PAW_PBE Ga_d 06Jul2010
 POTCAR:    PAW_PBE As 22Sep2009

 POTCAR:    PAW_PBE Ga_d 06Jul2010
   VRHFIN =Ga: s2p1

   TITEL  = PAW_PBE Ga_d 06Jul2010
   POMASS =   69.723; ZVAL   =   13.000    mass and valenz
   ENMAX  =  282.691; ENMIN  =  212.018 eV

 POTCAR:    PAW_PBE As 22Sep2009
   VRHFIN =As: s2p3

   TITEL  = PAW_PBE As 22Sep2009
   POMASS =   74.922; ZVAL   =    5.000    mass and valenz
   ENMAX  =  208.702; ENMIN  =  156.526 eV

  PAW_PBE Ga_d 06Jul2010                :
  PAW_PBE As 22Sep2009                  :

 POSCAR: GaAs (Madelung Handbook, RT)
  positions in direct lattice
 exchange correlation table for  LEXCH =        8
   RHO(1)=    0.500       N(1)  =     2000
   RHO(2)=  100.500       N(2)  =     4000

 ion  position               nearest neighbor table
   1  0.000  0.000  0.000-   2 2.45   2 2.45   2 2.45   2 2.45
   2  0.250  0.250  0.250-   1 2.45   1 2.45   1 2.45   1 2.45

IMPORTANT INFORMATION: All symmetrisations will be switched off!
NOSYMM: (Re-)initialisation of all symmetry stuff for point group C_1.

 KPOINTS: Automatically generated mesh
  k-points in reciprocal lattice
Space group operators:
 irot       det(A)        alpha          n_x          n_y          n_z        tau_x        tau_y        tau_z
    1     1.000000     0.000000     1.000000     0.000000     0.000000     0.000000     0.000000     0.000000

 Subroutine IBZKPT_HF returns following result:

 Found    504 k-points in 1st BZ
 the following    504 k-points will be used (e.g. in the exchange kernel)
 Following reciprocal coordinates:   # in IRBZ
  0.000000  0.000000  0.000000    0.00462963   1 t-inv F
  0.166667  0.000000  0.000000    0.00462963   2 t-inv F
  0.333333  0.000000  0.000000    0.00462963   3 t-inv F
  0.500000  0.000000  0.000000    0.00462963   4 t-inv F
 -0.333333  0.000000  0.000000    0.00462963   5 t-inv F
 -0.166667  0.000000  0.000000    0.00462963   6 t-inv F
  0.000000  0.166667  0.000000    0.00462963   7 t-inv F
  0.166667  0.166667  0.000000    0.00462963   8 t-inv F
  0.333333  0.166667  0.000000    0.00462963   9 t-inv F
  0.500000  0.166667  0.000000    0.00462963  10 t-inv F
 -0.333333  0.166667  0.000000    0.00462963  11 t-inv F
 -0.166667  0.166667  0.000000    0.00462963  12 t-inv F
  0.000000  0.333333  0.000000    0.00462963  13 t-inv F
  0.166667  0.333333  0.000000    0.00462963  14 t-inv F
  0.333333  0.333333  0.000000    0.00462963  15 t-inv F
  0.500000  0.333333  0.000000    0.00462963  16 t-inv F
 -0.333333  0.333333  0.000000    0.00462963  17 t-inv F
 -0.166667  0.333333  0.000000    0.00462963  18 t-inv F
  0.000000  0.500000  0.000000    0.00462963  19 t-inv F
  0.166667  0.500000  0.000000    0.00462963  20 t-inv F
  0.333333  0.500000  0.000000    0.00462963  21 t-inv F
  0.500000  0.500000  0.000000    0.00462963  22 t-inv F
 -0.333333  0.500000  0.000000    0.00462963  23 t-inv F
 -0.166667  0.500000  0.000000    0.00462963  24 t-inv F
  0.000000 -0.333333  0.000000    0.00462963  25 t-inv F
  0.166667 -0.333333  0.000000    0.00462963  26 t-inv F
  0.333333 -0.333333  0.000000    0.00462963  27 t-inv F
  0.500000 -0.333333  0.000000    0.00462963  28 t-inv F
 -0.333333 -0.333333  0.000000    0.00462963  29 t-inv F
 -0.166667 -0.333333  0.000000    0.00462963  30 t-inv F
  0.000000 -0.166667  0.000000    0.00462963  31 t-inv F
  0.166667 -0.166667  0.000000    0.00462963  32 t-inv F
  0.333333 -0.166667  0.000000    0.00462963  33 t-inv F
  0.500000 -0.166667  0.000000    0.00462963  34 t-inv F
 -0.333333 -0.166667  0.000000    0.00462963  35 t-inv F
 -0.166667 -0.166667  0.000000    0.00462963  36 t-inv F
  0.000000  0.000000  0.166667    0.00462963  37 t-inv F
  0.166667  0.000000  0.166667    0.00462963  38 t-inv F
  0.333333  0.000000  0.166667    0.00462963  39 t-inv F
  0.500000  0.000000  0.166667    0.00462963  40 t-inv F
 -0.333333  0.000000  0.166667    0.00462963  41 t-inv F
 -0.166667  0.000000  0.166667    0.00462963  42 t-inv F
  0.000000  0.166667  0.166667    0.00462963  43 t-inv F
  0.166667  0.166667  0.166667    0.00462963  44 t-inv F
  0.333333  0.166667  0.166667    0.00462963  45 t-inv F
  0.500000  0.166667  0.166667    0.00462963  46 t-inv F
 -0.333333  0.166667  0.166667    0.00462963  47 t-inv F
 -0.166667  0.166667  0.166667    0.00462963  48 t-inv F
  0.000000  0.333333  0.166667    0.00462963  49 t-inv F
  0.166667  0.333333  0.166667    0.00462963  50 t-inv F
  0.333333  0.333333  0.166667    0.00462963  51 t-inv F
  0.500000  0.333333  0.166667    0.00462963  52 t-inv F
 -0.333333  0.333333  0.166667    0.00462963  53 t-inv F
 -0.166667  0.333333  0.166667    0.00462963  54 t-inv F
  0.000000  0.500000  0.166667    0.00462963  55 t-inv F
  0.166667  0.500000  0.166667    0.00462963  56 t-inv F
  0.333333  0.500000  0.166667    0.00462963  57 t-inv F
  0.500000  0.500000  0.166667    0.00462963  58 t-inv F
 -0.333333  0.500000  0.166667    0.00462963  59 t-inv F
 -0.166667  0.500000  0.166667    0.00462963  60 t-inv F
[...]
  0.416667  0.416667  0.416667    0.00000000 490 t-inv F
  0.422619  0.422619  0.422619    0.00000000 491 t-inv F
  0.428571  0.428571  0.428571    0.00000000 492 t-inv F
  0.434524  0.434524  0.434524    0.00000000 493 t-inv F
  0.440476  0.440476  0.440476    0.00000000 494 t-inv F
  0.446429  0.446429  0.446429    0.00000000 495 t-inv F
  0.452381  0.452381  0.452381    0.00000000 496 t-inv F
  0.458333  0.458333  0.458333    0.00000000 497 t-inv F
  0.464286  0.464286  0.464286    0.00000000 498 t-inv F
  0.470238  0.470238  0.470238    0.00000000 499 t-inv F
  0.476190  0.476190  0.476190    0.00000000 500 t-inv F
  0.482143  0.482143  0.482143    0.00000000 501 t-inv F
  0.488095  0.488095  0.488095    0.00000000 502 t-inv F
  0.494048  0.494048  0.494048    0.00000000 503 t-inv F
  0.500000  0.500000  0.500000    0.00000000 504 t-inv F

 I would recommend the setting:
   dimension x,y,z NGX =    29 NGY =   29 NGZ =   29
 SYSTEM =  Hybrid non self-consistent (band struct
 POSCAR =  GaAs (Madelung Handbook, RT)

 Startparameter for this run:
   NWRITE =      2    write-flag & timer
   PREC   = accura    normal or accurate (medium, high low for compatibility)
   ISTART =      0    job   : 0-new  1-cont  2-samecut
   ICHARG =      2    charge: 1-file 2-atom 10-const
   ISPIN  =      1    spin polarized calculation?
   LNONCOLLINEAR =      T non collinear calculations
   LSORBIT =      T    spin-orbit coupling
   INIWAV =      1    electr: 0-lowe 1-rand  2-diag
   LASPH  =      F    aspherical Exc in radial PAW
   METAGGA=      F    non-selfconsistent MetaGGA calc.

 Electronic Relaxation 1
   ENCUT  =  500.0 eV  36.75 Ry    6.06 a.u.   7.29  7.29  7.29*2*pi/ulx,y,z
   ENINI  =  500.0     initial cutoff
   ENAUG  =  490.7 eV  augmentation charge cutoff
   NELM   =     60;   NELMIN=  5; NELMDL=  0     # of ELM steps
   EDIFF  = 0.1E-05   stopping-criterion for ELM
   LREAL  =      F    real-space projection
   NLSPLINE    = F    spline interpolate recip. space projectors
   LCOMPAT=      F    compatible to vasp.4.4
   GGA_COMPAT  = T    GGA compatible to vasp.4.4-vasp.4.6
   LMAXPAW     = -100 max onsite density
   LMAXMIX     =    2 max onsite mixed and CHGCAR
   VOSKOWN=      0    Vosko Wilk Nusair interpolation
   ROPT   =    0.00000   0.00000
 Ionic relaxation
   EDIFFG = -.5E-02   stopping-criterion for IOM
   NSW    =      1    number of steps for IOM
   NBLOCK =      1;   KBLOCK =      1    inner block; outer block
   IBRION =      1    ionic relax: 0-MD 1-quasi-New 2-CG
   NFREE  =      0    steps in history (QN), initial steepest desc. (CG)
   ISIF   =      3    stress and relaxation
   IWAVPR =     11    prediction:  0-non 1-charg 2-wave 3-comb
   ISYM   =      0    0-nonsym 1-usesym 2-fastsym
   LCORR  =      T    Harris-Foulkes like correction to forces

   POTIM  = 0.5000    time-step for ionic-motion
   TEIN   =    0.0    initial temperature
   TEBEG  =    0.0;   TEEND  =   0.0 temperature during run
   SMASS  =  -3.00    Nose mass-parameter (am)
   estimated Nose-frequenzy (Omega)   =  0.10E-29 period in steps =****** mass=  -0.365E-27a.u.
   SCALEE = 1.0000    scale energy and forces
   NPACO  =    256;   APACO  = 16.0  distance and # of slots for P.C.
   PSTRESS=    0.0 pullay stress

  Mass of Ions in am
   POMASS =  69.72 74.92
  Ionic Valenz
   ZVAL   =  13.00  5.00
  Atomic Wigner-Seitz radii
  virtual crystal weights
   VCA    =   1.00  1.00
   NELECT =      18.0000    total number of electrons
   NUPDOWN=      -1.0000    fix difference up-down

 DOS related values:
   EMIN   =  10.00;   EMAX   =-10.00  energy-range for DOS
   EFERMI =   0.00
   ISMEAR =     0;   SIGMA  =   0.01  broadening in eV -4-tet -1-fermi 0-gaus

 Electronic relaxation 2 (details)
   IALGO  =     58    algorithm
   LDIAG  =      T    sub-space diagonalisation (order eigenvalues)
   LSUBROT=      F    optimize rotation matrix (better conditioning)
   TURBO    =      0    0=normal 1=particle mesh
   IRESTART =      0    0=no restart 2=restart with 2 vectors
   NREBOOT  =      0    no. of reboots
   NMIN     =      0    reboot dimension
   EREF     =   0.00    reference energy to select bands
   IMIX   =      4    mixing-type and parameters
     AMIX     =   0.40;   BMIX     =  1.00
     AMIX_MAG =   1.60;   BMIX_MAG =  1.00
     AMIN     =   0.10
     WC   =   100.;   INIMIX=   1;  MIXPRE=   1;  MAXMIX= -45

 Intra band minimization:
   WEIMIN = 0.0010     energy-eigenvalue tresh-hold
   EBREAK =  0.52E-08  absolut break condition
   DEPER  =   0.30     relativ break condition

   TIME   =   0.40     timestep for ELM

  volume/ion in A,a.u.               =      22.59       152.43
  Fermi-wavevector in a.u.,A,eV,Ry     =   1.204649  2.276457 19.744497  1.451180
  Thomas-Fermi vector in A             =   2.340368

 Write flags
   LWAVE  =      T    write WAVECAR
   LCHARG =      T    write CHGCAR
   LVTOT  =      F    write LOCPOT, total local potential
   LVHAR  =      F    write LOCPOT, Hartree potential only
   LELF   =      F    write electronic localiz. function (ELF)
   LORBIT =     10    0 simple, 1 ext, 2 COOP (PROOUT)

 Dipole corrections
   LMONO  =      F    monopole corrections only (constant potential shift)
   LDIPOL =      F    correct potential (dipole corrections)
   IDIPOL =      0    1-x, 2-y, 3-z, 4-all directions
   EPSILON=  1.0000000 bulk dielectric constant

 Core level calculations are selected ICORELEVEL =  1
 Exchange correlation treatment:
   GGA     =    --    GGA type
   VOSKOWN=      0    Vosko Wilk Nusair interpolation
   EXXOEP  =     0    0=HF, 1=EXX-LHF (local Hartree Fock) 2=EXX OEP
   LHFCALC =     T    Hartree Fock is set to
   LSYMGRAD=     F    symmetrize gradient (conserves proper symmetry)
   PRECFOCK=fast      Normal, Fast or Accurate (Low or Medium for compatibility)
   LRHFCALC=     F    long range Hartree Fock
   LRSCOR  =     F    long range correlation only (use DFT for short range part)
   LTHOMAS =     F    Thomas Fermi screening in HF
   LMODELHF=     F    short range full HF, long range fraction AEXX
[...]
 k-point ** :  -0.1667 0.5000 0.5000  plane waves:    2298
 k-point ** :   0.0000-0.3333 0.5000  plane waves:    2298
 k-point ** :   0.1667-0.3333 0.5000  plane waves:    2284
 k-point ** :   0.3333-0.3333 0.5000  plane waves:    2288
 k-point ** :   0.5000-0.3333 0.5000  plane waves:    2290
 k-point ** :  -0.3333-0.3333 0.5000  plane waves:    2288
 k-point ** :  -0.1667-0.3333 0.5000  plane waves:    2302
 k-point ** :   0.0000-0.1667 0.5000  plane waves:    2290
 k-point ** :   0.1667-0.1667 0.5000  plane waves:    2288
 k-point ** :   0.3333-0.1667 0.5000  plane waves:    2284
 k-point ** :   0.5000-0.1667 0.5000  plane waves:    2298
 k-point ** :  -0.3333-0.1667 0.5000  plane waves:    2302
 k-point ** :  -0.1667-0.1667 0.5000  plane waves:    2288
 k-point ** :   0.0000 0.0000-0.3333  plane waves:    2298
 k-point ** :   0.1667 0.0000-0.3333  plane waves:    2288
 k-point ** :   0.3333 0.0000-0.3333  plane waves:    2282
 k-point ** :   0.5000 0.0000-0.3333  plane waves:    2298
 k-point ** :  -0.3333 0.0000-0.3333  plane waves:    2300
 k-point ** :  -0.1667 0.0000-0.3333  plane waves:    2274
 k-point ** :   0.0000 0.1667-0.3333  plane waves:    2288
 k-point ** :   0.1667 0.1667-0.3333  plane waves:    2290
 k-point ** :   0.3333 0.1667-0.3333  plane waves:    2288
 k-point ** :   0.5000 0.1667-0.3333  plane waves:    2284
 k-point ** :  -0.3333 0.1667-0.3333  plane waves:    2298
 k-point ** :  -0.1667 0.1667-0.3333  plane waves:    2302
 k-point ** :   0.0000 0.3333-0.3333  plane waves:    2282
 k-point ** :   0.1667 0.3333-0.3333  plane waves:    2288
 k-point ** :   0.3333 0.3333-0.3333  plane waves:    2282
[...]
 k-point ** :   0.4167 0.4167 0.4167  plane waves:    2298
 k-point ** :   0.4226 0.4226 0.4226  plane waves:    2310
 k-point ** :   0.4286 0.4286 0.4286  plane waves:    2310
 k-point ** :   0.4345 0.4345 0.4345  plane waves:    2310
 k-point ** :   0.4405 0.4405 0.4405  plane waves:    2310
 k-point ** :   0.4464 0.4464 0.4464  plane waves:    2310
 k-point ** :   0.4524 0.4524 0.4524  plane waves:    2322
 k-point ** :   0.4583 0.4583 0.4583  plane waves:    2328
 k-point ** :   0.4643 0.4643 0.4643  plane waves:    2328
 k-point ** :   0.4702 0.4702 0.4702  plane waves:    2328
 k-point ** :   0.4762 0.4762 0.4762  plane waves:    2316
 k-point ** :   0.4821 0.4821 0.4821  plane waves:    2316
 k-point ** :   0.4881 0.4881 0.4881  plane waves:    2316
 k-point ** :   0.4940 0.4940 0.4940  plane waves:    2316
 k-point ** :   0.5000 0.5000 0.5000  plane waves:    2316

 maximum and minimum number of plane-waves per node :      2346     2270

 maximum number of plane-waves:      2346
 maximum index in each direction:
   IXMAX=    7   IYMAX=    7   IZMAX=    7
   IXMIN=   -7   IYMIN=   -7   IZMIN=   -8

 NGX is ok and might be reduce to  30
 NGY is ok and might be reduce to  30
 WARNING: aliasing errors must be expected set NGZ to  32 to avoid them
 aliasing errors are usually negligible using standard VASP settings
 and one can safely disregard these warnings

 serial   3D FFT for wavefunctions
 parallel 3D FFT for charge:
    minimum data exchange during FFTs selected (reduces bandwidth)

 FFT grid for exact exchange (Hartree Fock)
  NGX = 18; NGY = 18; NGZ = 18

 Radii for the augmentation spheres in the non-local exchange
 for species   1 augmentation radius   1.392 (default was   1.031)
       energy cutoff for augmentation   2000.0
 for species   2 augmentation radius   1.434 (default was   1.062)
       energy cutoff for augmentation   2000.0
 Maximum index for augmentation-charges in exchange         1638
  SETUP_FOCK is finished

 Broyden mixing: mesh for mixing (old mesh)
   NGX = 15   NGY = 15   NGZ = 15
  (NGX  = 60   NGY  = 60   NGZ  = 60)
  gives a total of   3375 points

 initial charge density was supplied:
 charge density of overlapping atoms calculated
 number of electron      18.0000000 magnetization       2.0000000      2.0000000      2.0000000
 charge density for first step will be calculated from the start-wavefunctions

 Maximum index for augmentation-charges         1370 (set IRDMAX)

 First call to EWALD:  gamma=   0.498
 Maximum number of real-space cells 3x 3x 3
 Maximum number of reciprocal cells 3x 3x 3

 FEWALD executed in parallel

----------------------------------------- Iteration    1(   1)  ---------------------------------------

 eigenvalue-minimisations  : 51336
 total energy-change (2. order) : 0.1179840E+03  (-0.9379675E+03)
 number of electron      18.0000000 magnetization       2.0000000      2.0000000      2.0000000
 augmentation part       18.0000000 magnetization       2.0000000      2.0000000      2.0000000

 Free energy of the ion-electron system (eV)
  alpha Z        PSCENC =        60.29112737
  Ewald energy   TEWEN  =     -1265.50193243
  -Hartree energ DENC   =      -725.79254029
  -exchange      EXHF   =         0.00000000
  -V(xc)+E(xc)   XCENC  =        23.83578308
  PAW double counting   =      1757.99785361    -2059.25063884
  entropy T*S    EENTRO =        -0.00003992
  eigenvalues    EBANDS =        10.66001901
  atomic energy  EATOM  =      2315.74433272
  free energy    TOTEN  =       117.98396432 eV

  energy without entropy =      117.98400424  energy(sigma->0) =      117.98398428
  exchange ACFDT corr.  =         0.00000000  see jH, gK, PRB 81, 115126

[...]

 eigenvalue-minimisations  : 59640
 total energy-change (2. order) :-0.7999734E+02  (-0.7545451E+02)
 number of electron      18.0000000 magnetization       2.0000000      2.0000000      2.0000000
 augmentation part       18.0000000 magnetization       2.0000000      2.0000000      2.0000000

[...]

----------------------------------------- Iteration    1(  21)  ---------------------------------------

 eigenvalue-minimisations  :     0
 total energy-change (2. order) :-0.5533798E-06  (-0.2038068E-06)
 number of electron      17.9999995 magnetization      -0.0000000     -0.0000000     -0.0000000
 augmentation part        7.7290616 magnetization      -0.0000000     -0.0000000     -0.0000000

 Free energy of the ion-electron system (eV)
  alpha Z        PSCENC =        60.29112737
  Ewald energy   TEWEN  =     -1265.50193243
  -Hartree energ DENC   =      -723.53371665
  -exchange      EXHF   =        41.40727794
  -V(xc)+E(xc)   XCENC  =        23.64847275
  PAW double counting   =      2106.20378823    -2411.93270102
  entropy T*S    EENTRO =        -0.00000000
  eigenvalues    EBANDS =      -156.18901858
  atomic energy  EATOM  =      2315.74433272
  free energy    TOTEN  =        -9.86236967 eV

  energy without entropy =       -9.86236967  energy(sigma->0) =       -9.86236967
  exchange ACFDT corr.  =        -0.00000000  see jH, gK, PRB 81, 115126

  average scaling for gradient   0.5823

 the core state eigenenergies are
   1-  1s    -59.4187  2s    -59.7098  2p    -59.7098  3s    -59.7098  3p    -59.7098

   2-  1s    -46.6001  2s    -46.9440  2p    -46.9440  3s    -46.9440  3p    -46.9440
       3d    -46.9440

 E-fermi :   3.6722     XC(G=0):  -7.9650     alpha+bet : -9.7375

 k-point     1 :       0.0000    0.0000    0.0000
  band No.  band energies     occupation
      1     -14.1101      1.00000
      2     -14.1098      1.00000
      3     -14.1098      1.00000
      4     -14.1101      1.00000
      5     -13.6818      1.00000
      6     -13.6828      1.00000
      7     -13.6302      1.00000
      8     -13.6321      1.00000
      9     -13.6312      1.00000
     10     -13.6301      1.00000
     11     -10.4566      1.00000
     12     -10.4566      1.00000
     13       3.2670      1.00000
     14       3.2671      1.00000
     15       3.6275      1.00000
     16       3.6274      1.00000
     17       3.6274      1.00000
     18       3.6275      1.00000
     19       4.9235      0.00000
     20       4.9234      0.00000
     21       7.9201      0.00000
     22       7.9201      0.00000
     23       8.1065      0.00000
     24       8.1063      0.00000
     25       8.1063      0.00000
     26       8.1064      0.00000
     27      12.0839      0.00000
     28      12.0840      0.00000
     29      14.6021      0.00000
     30      14.6021      0.00000
     31      14.6021      0.00000
     32      14.6021      0.00000
     33      16.0527      0.00000
     34      16.0529      0.00000
     35      16.0857      0.00000
     36      16.0852      0.00000
     37      16.0854      0.00000
     38      16.0858      0.00000
     39      18.9520      0.00000
     40      18.9521      0.00000
     41      30.3360      0.00000
     42      30.3527      0.00000
     43      30.6111      0.00000
     44      30.6156      0.00000
     45      30.6170      0.00000
     46      30.7733      0.00000
     47      31.3960      0.00000
     48      31.4310      0.00000

[...]

 k-point   504 :       0.5000    0.5000    0.5000
  band No.  band energies     occupation
      1     -14.1221      1.00000
      2     -14.1191      1.00000
      3     -14.1077      1.00000
      4     -14.1071      1.00000
      5     -13.6830      1.00000
      6     -13.6835      1.00000
      7     -13.6480      1.00000
      8     -13.6482      1.00000
      9     -13.6170      1.00000
     10     -13.6159      1.00000
     11      -8.5363      1.00000
     12      -8.5362      1.00000
     13      -3.6994      1.00000
     14      -3.6995      1.00000
     15       2.1661      1.00000
     16       2.1662      1.00000
     17       2.3869      1.00000
     18       2.3870      1.00000
     19       5.2710      0.00000
     20       5.2710      0.00000
     21       8.9249      0.00000
     22       8.9250      0.00000
     23       9.0024      0.00000
     24       9.0025      0.00000
     25      12.1588      0.00000
     26      12.1589      0.00000
     27      15.0875      0.00000
     28      15.0876      0.00000
     29      16.4928      0.00000
     30      16.4929      0.00000
     31      16.5971      0.00000
     32      16.5972      0.00000
     33      17.3766      0.00000
     34      17.3766      0.00000
     35      17.7479      0.00000
     36      17.7485      0.00000
     37      17.7766      0.00000
     38      17.7772      0.00000
     39      24.2125      0.00000
     40      24.2126      0.00000
     41      26.4493      0.00000
     42      26.4497      0.00000
     43      26.9536      0.00000
     44      26.9583      0.00000
     45      26.9737      0.00000
     46      26.9820      0.00000
     47      27.6773      0.00000
     48      27.6866      0.00000

 soft charge-density along one line, spin component           1
         0         1         2         3         4         5         6         7         8         9
 total charge-density along one line

[...]

 soft charge-density along one line, spin component           4
         0         1         2         3         4         5         6         7         8         9
 total charge-density along one line

------------------------ aborting loop because EDIFF is reached ----------------------------------------

 total charge

# of ion     s       p       d       tot
  1        0.840   0.802  10.010  11.652
  2        1.217   1.650   0.032   2.898
tot        2.057   2.452  10.042  14.550

 magnetization (x)

[...]

 magnetization (y)

[...]

 magnetization (z)

[...]

  FORCE on cell =-STRESS in cart. coord.  units (eV):
  Direction    XX          YY          ZZ          XY          YZ          ZX
  Alpha Z    60.29113    60.29113    60.29113
  Ewald    -421.83412  -421.83412  -421.83412    -0.00000    -0.00000    -0.00000
  Hartree   241.17885   241.17885   241.17885     0.00003    -0.00004    -0.00004
  E(xc)     -74.01989   -74.01989   -74.01989     0.00001    -0.00001    -0.00001
  Local     -60.30325   -60.30326   -60.30326     0.00004    -0.00003    -0.00003
  n-local   155.93826   155.93826   155.93826    -0.00062    -0.00063    -0.00063
  augment   108.13428   108.13428   108.13428    -0.00009     0.00009     0.00009
  Kinetic   109.94481   109.94481   109.94481    -0.00000     0.00001     0.00001
  Fock            NaN         NaN         NaN         NaN         NaN         NaN
  Total           NaN         NaN         NaN         NaN         NaN         NaN
  in kB           NaN         NaN         NaN         NaN         NaN         NaN

 VOLUME and BASIS-vectors are now :
  energy-cutoff  :      500.00
  volume of cell :       45.18
      direct lattice vectors                 reciprocal lattice vectors
     2.826800000  2.826800000  0.000000000     0.176878449  0.176878449  0.176878449
     2.826800000  0.000000000 -2.826800000     0.176878449 -0.176878449 -0.176878449
     0.000000000  2.826800000 -2.826800000    -0.176878449  0.176878449 -0.176878449

  length of vectors
     3.997698898  3.997698898  3.997698898     0.306362461  0.306362461  0.306362461

 FORCES acting on ions:
    Electron-Ion                     Ewald-Force                    Non-Local-Force
   0.338E-04 0.335E-04 -.224E-04   -.206E-13 -.524E-14 0.156E-13   -.225E-04 -.205E-04 0.421E-04
   -.597E-05 -.648E-05 0.230E-07   0.196E-13 0.339E-14 -.154E-13   -.819E-05 -.902E-05 0.138E-04
   0.290E-04 0.282E-04 -.240E-04   -.109E-14 -.185E-14 0.200E-15   -.306E-04 -.296E-04 0.559E-04

 POSITION                                       TOTAL-FORCE (eV/Angst)
      0.00000      0.00000      0.00000              NaN           NaN           NaN
      1.41340      1.41340     -1.41340              NaN           NaN           NaN
    total drift:                                     NaN           NaN           NaN

  FREE ENERGIE OF THE ION-ELECTRON SYSTEM (eV)
  free  energy   TOTEN  =        -9.86236967 eV

  energy  without entropy=       -9.86236967  energy(sigma->0) =       -9.86236967

 Quasi-Newton relaxation of ions (Broydens 2nd method)
  g(Force)  =       NaN   g(Stress)=       NaN

 Reset! Starting new Quasi-Newton update for ions

 reached required accuracy - stopping structural energy minimisation
 writing wavefunctions

 Spin-Orbit-Coupling matrix elements

 Ion:    1  E_soc:     -0.0107293
 l=   1
     0.0000000    -0.0010392    -0.0010392
    -0.0010392     0.0000000    -0.0010391
    -0.0010392    -0.0010391     0.0000000
 l=   2
     0.0000000    -0.0001506     0.0000000    -0.0001506    -0.0005984
    -0.0001506     0.0000000    -0.0004488    -0.0001506    -0.0001496
     0.0000000    -0.0004488     0.0000000    -0.0004488     0.0000000
    -0.0001506    -0.0001506    -0.0004488     0.0000000    -0.0001496
    -0.0005984    -0.0001496     0.0000000    -0.0001496     0.0000000
 l=   3
     0.0000000     0.0000000     0.0000000     0.0000000     0.0000000     0.0000000     0.0000000
     0.0000000     0.0000000     0.0000000     0.0000000     0.0000000     0.0000000     0.0000000
     0.0000000     0.0000000     0.0000000     0.0000000     0.0000000     0.0000000     0.0000000
     0.0000000     0.0000000     0.0000000     0.0000000     0.0000000     0.0000000     0.0000000
     0.0000000     0.0000000     0.0000000     0.0000000     0.0000000     0.0000000     0.0000000
     0.0000000     0.0000000     0.0000000     0.0000000     0.0000000     0.0000000     0.0000000
     0.0000000     0.0000000     0.0000000     0.0000000     0.0000000     0.0000000     0.0000000

 Ion:    2  E_soc:     -0.0227855
 l=   1
     0.0000000    -0.0037896    -0.0037896
    -0.0037896     0.0000000    -0.0037896
    -0.0037896    -0.0037896     0.0000000
 l=   2
     0.0000000    -0.0000045     0.0000000    -0.0000045    -0.0000035
    -0.0000045     0.0000000    -0.0000026    -0.0000045    -0.0000009
     0.0000000    -0.0000026     0.0000000    -0.0000026     0.0000000
    -0.0000045    -0.0000045    -0.0000026     0.0000000    -0.0000009
    -0.0000035    -0.0000009     0.0000000    -0.0000009     0.0000000
 l=   3
     0.0000000     0.0000000     0.0000000     0.0000000     0.0000000     0.0000000     0.0000000
     0.0000000     0.0000000     0.0000000     0.0000000     0.0000000     0.0000000     0.0000000
     0.0000000     0.0000000     0.0000000     0.0000000     0.0000000     0.0000000     0.0000000
     0.0000000     0.0000000     0.0000000     0.0000000     0.0000000     0.0000000     0.0000000
     0.0000000     0.0000000     0.0000000     0.0000000     0.0000000     0.0000000     0.0000000
     0.0000000     0.0000000     0.0000000     0.0000000     0.0000000     0.0000000     0.0000000
     0.0000000     0.0000000     0.0000000     0.0000000     0.0000000     0.0000000     0.0000000

 total charge

[...]

 magnetization (x)

[...]

 magnetization (y)

[...]

 magnetization (z)

# of ion     s       p       d       tot
  1       -0.000  -0.000  -0.000  -0.000
  2       -0.000   0.000  -0.000   0.000
tot       -0.000  -0.000  -0.000  -0.000