 vasp.5.4.1 24Jun15 (build Nov 25 2015 16:39:35) complex

 executed on         CrayXC-Intel date 2016.10.11  15:49:11

 INCAR:
 POTCAR:    PAW_PBE Cu_pv 06Sep2000
 POTCAR:    PAW_PBE Zn 06Sep2000
 POTCAR:    PAW_PBE Sn_d 06Sep2000
 POTCAR:    PAW_PBE S 06Sep2000

 POTCAR:    PAW_PBE Cu_pv 06Sep2000
   VRHFIN =Cu: d10 p1

   TITEL  = PAW_PBE Cu_pv 06Sep2000
   POMASS =   63.546; ZVAL   =   17.000    mass and valenz
   ENMAX  =  368.648; ENMIN  =  276.486 eV

 POTCAR:    PAW_PBE Zn 06Sep2000
   VRHFIN =Zn: d10 p2

   TITEL  = PAW_PBE Zn 06Sep2000
   POMASS =   65.390; ZVAL   =   12.000    mass and valenz
   ENMAX  =  276.723; ENMIN  =  207.542 eV

 POTCAR:    PAW_PBE Sn_d 06Sep2000
   VRHFIN =Sn: s2p2

   TITEL  = PAW_PBE Sn_d 06Sep2000
   POMASS =  118.710; ZVAL   =   14.000    mass and valenz
   ENMAX  =  241.083; ENMIN  =  180.812 eV

 POTCAR:    PAW_PBE S 06Sep2000
   VRHFIN =S : s2p4

   TITEL  = PAW_PBE S 06Sep2000
   POMASS =   32.066; ZVAL   =    6.000    mass and valenz
   ENMAX  =  258.689; ENMIN  =  194.016 eV

  PAW_PBE Cu_pv 06Sep2000               :
  PAW_PBE Zn 06Sep2000                  :
  PAW_PBE Sn_d 06Sep2000                :
  PAW_PBE S 06Sep2000                   :

 POSCAR: Cu2ZnSnS4 (LaFond 2014, 293 K)
  positions in direct lattice
 exchange correlation table for  LEXCH =       14
   RHO(1)=    0.500       N(1)  =     2000
   RHO(2)=  100.500       N(2)  =     4000

 ion  position               nearest neighbor table
   1  0.000  0.000  0.000-   5 2.32   6 2.32   7 2.32   8 2.32
   2  0.750  0.250  0.500-   8 2.32   6 2.32   7 2.32   5 2.32
   3  0.500  0.500  0.000-   8 2.35   6 2.35   7 2.35   5 2.35
   4  0.250  0.750  0.500-   8 2.42   6 2.42   7 2.42   5 2.42
   5  0.118  0.134  0.244-   1 2.32   2 2.32   3 2.35   4 2.42
   6  0.639  0.623  0.244-   1 2.32   2 2.32   3 2.35   4 2.42
   7  0.866  0.361  0.756-   1 2.32   2 2.32   3 2.35   4 2.42
   8  0.377  0.882  0.756-   1 2.32   2 2.32   3 2.35   4 2.42

  LATTYP: Found a body centered tetragonal cell.
 ALAT       =     5.4353000000
 C/A-ratio  =     1.9955400000

  Lattice vectors:

 A1 = (   2.7176500000,  -2.7176500000,   5.4231792810)
 A2 = (  -2.7176500000,   2.7176500000,   5.4231792810)
 A3 = (  -2.7176500000,  -2.7176500000,  -5.4231792810)

Analysis of symmetry for initial positions (statically):
 Subroutine PRICEL returns:
 Original cell was already a primitive cell.

 Routine SETGRP: Setting up the symmetry group for a
 body centered tetragonal supercell.

 Subroutine GETGRP returns: Found  4 space group operations
 (whereof  4 operations were pure point group operations)
 out of a pool of 16 trial point group operations.

The static configuration has the point symmetry S_4 .

Analysis of symmetry for dynamics (positions and initial velocities):
 Subroutine PRICEL returns:
 Original cell was already a primitive cell.

[...]

The dynamic configuration has the point symmetry S_4 .

Analysis of structural, dynamic, and magnetic symmetry:
 Subroutine PRICEL returns:
 Original cell was already a primitive cell.

 Routine SETGRP: Setting up the symmetry group for a
 body centered tetragonal supercell.

 Subroutine GETGRP returns: Found  1 space group operations
 (whereof  1 operations were pure point group operations)
 out of a pool of 16 trial point group operations.

The (compounded) configuration has the point symmetry C_1 .

 Subroutine INISYM returns: Found  1 space group operations
 (whereof  1 operations are pure point group operations),
 and found     1 'primitive' translations

 KPOINTS: Automatically generated mesh
  k-points in reciprocal lattice
Space group operators:
 irot       det(A)        alpha          n_x          n_y          n_z        tau_x        tau_y        tau_z
    1     1.000000     0.000000     1.000000     0.000000     0.000000     0.000000     0.000000     0.000000

 I would recommend the setting:
   dimension x,y,z NGX =    40 NGY =   40 NGZ =   48
 SYSTEM =  Name
 POSCAR =  Cu2ZnSnS4 (LaFond 2014, 293 K)

 Startparameter for this run:
   NWRITE =      2    write-flag & timer
   PREC   = accura    normal or accurate (medium, high low for compatibility)
   ISTART =      0    job   : 0-new  1-cont  2-samecut
   ICHARG =     11    charge: 1-file 2-atom 10-const
   ISPIN  =      1    spin polarized calculation?
   LNONCOLLINEAR =      T non collinear calculations
   LSORBIT =      T    spin-orbit coupling
   INIWAV =      1    electr: 0-lowe 1-rand  2-diag
   LASPH  =      F    aspherical Exc in radial PAW
   METAGGA=      F    non-selfconsistent MetaGGA calc.

 Electronic Relaxation 1
   ENCUT  =  500.0 eV  36.75 Ry    6.06 a.u.   9.91  9.91 12.12*2*pi/ulx,y,z
   ENINI  =  500.0     initial cutoff
   ENAUG  =  758.2 eV  augmentation charge cutoff
   NELM   =     60;   NELMIN=  5; NELMDL=  0     # of ELM steps
   EDIFF  = 0.1E-05   stopping-criterion for ELM
   LREAL  =      F    real-space projection
   NLSPLINE    = F    spline interpolate recip. space projectors
   LCOMPAT=      F    compatible to vasp.4.4
   GGA_COMPAT  = T    GGA compatible to vasp.4.4-vasp.4.6
   LMAXPAW     = -100 max onsite density
   LMAXMIX     =    2 max onsite mixed and CHGCAR
   VOSKOWN=      0    Vosko Wilk Nusair interpolation
   ROPT   =    0.00000   0.00000   0.00000   0.00000
 Ionic relaxation
   EDIFFG = -.5E-02   stopping-criterion for IOM
   NSW    =      0    number of steps for IOM
   NBLOCK =      1;   KBLOCK =      1    inner block; outer block
   IBRION =     -1    ionic relax: 0-MD 1-quasi-New 2-CG
   NFREE  =      1    steps in history (QN), initial steepest desc. (CG)
   ISIF   =      3    stress and relaxation
   IWAVPR =     10    prediction:  0-non 1-charg 2-wave 3-comb
   ISYM   =      2    0-nonsym 1-usesym 2-fastsym
   LCORR  =      T    Harris-Foulkes like correction to forces

   POTIM  = 0.5000    time-step for ionic-motion
   TEIN   =    0.0    initial temperature
   TEBEG  =    0.0;   TEEND  =   0.0 temperature during run
   SMASS  =  -3.00    Nose mass-parameter (am)
   estimated Nose-frequenzy (Omega)   =  0.10E-29 period in steps =****** mass=  -0.675E-27a.u.
   SCALEE = 1.0000    scale energy and forces
   NPACO  =    256;   APACO  = 16.0  distance and # of slots for P.C.
   PSTRESS=    0.0 pullay stress

  Mass of Ions in am
   POMASS =  63.55 65.39118.71 32.07
  Ionic Valenz
   ZVAL   =  17.00 12.00 14.00  6.00
  Atomic Wigner-Seitz radii
  virtual crystal weights
   VCA    =   1.00  1.00  1.00  1.00
   NELECT =      84.0000    total number of electrons
   NUPDOWN=      -1.0000    fix difference up-down

 DOS related values:
   EMIN   =  10.00;   EMAX   =-10.00  energy-range for DOS
   EFERMI =   0.00
   ISMEAR =     0;   SIGMA  =   0.01  broadening in eV -4-tet -1-fermi 0-gaus

 Electronic relaxation 2 (details)
   IALGO  =     38    algorithm
   LDIAG  =      T    sub-space diagonalisation (order eigenvalues)
   LSUBROT=      F    optimize rotation matrix (better conditioning)
   TURBO    =      0    0=normal 1=particle mesh
   IRESTART =      0    0=no restart 2=restart with 2 vectors
   NREBOOT  =      0    no. of reboots
   NMIN     =      0    reboot dimension
   EREF     =   0.00    reference energy to select bands
   IMIX   =      4    mixing-type and parameters
     AMIX     =   0.40;   BMIX     =  1.00
     AMIX_MAG =   1.60;   BMIX_MAG =  1.00
     AMIN     =   0.01
     WC   =   100.;   INIMIX=   1;  MIXPRE=   1;  MAXMIX= -45

 Intra band minimization:
   WEIMIN = 0.0000     energy-eigenvalue tresh-hold
   EBREAK =  0.23E-08  absolut break condition
   DEPER  =   0.30     relativ break condition

   TIME   =   0.40     timestep for ELM

  volume/ion in A,a.u.               =      20.03       135.15
  Fermi-wavevector in a.u.,A,eV,Ry     =   1.320082  2.494593 23.709739  1.742617
  Thomas-Fermi vector in A             =   2.449934

 Write flags
   LWAVE  =      T    write WAVECAR
   LCHARG =      T    write CHGCAR
   LVTOT  =      F    write LOCPOT, total local potential
   LVHAR  =      F    write LOCPOT, Hartree potential only
   LELF   =      F    write electronic localiz. function (ELF)
   LORBIT =     10    0 simple, 1 ext, 2 COOP (PROOUT)

 Dipole corrections
   LMONO  =      F    monopole corrections only (constant potential shift)
   LDIPOL =      F    correct potential (dipole corrections)
   IDIPOL =      0    1-x, 2-y, 3-z, 4-all directions
   EPSILON=  1.0000000 bulk dielectric constant

 Exchange correlation treatment:
   GGA     =    PS    GGA type
   VOSKOWN=      0    Vosko Wilk Nusair interpolation
   LHFCALC =     F    Hartree Fock is set to
   LHFONE  =     F    Hartree Fock one center treatment
   AEXX    =    0.0000 exact exchange contribution

 Linear response parameters
   LEPSILON=     F    determine dielectric tensor
   LRPA    =     F    only Hartree local field effects (RPA)
   LNABLA  =     F    use nabla operator in PAW spheres
   LVEL    =     F    velocity operator in full k-point grid
   LINTERFAST=   F  fast interpolation
   KINTER  =     0    interpolate to denser k-point grid
   CSHIFT  =0.1000    complex shift for real part using Kramers Kronig
   OMEGAMAX=  -1.0    maximum frequency
   DEG_THRESHOLD= 0.2000000E-02 threshold for treating states as degnerate
   RTIME   =    0.100 relaxation time in fs

 Orbital magnetization related:
   ORBITALMAG=     F  switch on orbital magnetization
   LCHIMAG   =     F  perturbation theory with respect to B field
   DQ        =  0.001000  dq finite difference perturbation B field

 Static calculation
 charge density and potential remain constant during run
 non collinear spin polarized calculation
 Variant of blocked Davidson
 Davidson routine will perform the subspace rotation
 perform sub-space diagonalisation
    after iterative eigenvector-optimisation
 no mixing
 using additional bands           66
 reciprocal scheme for non local part
 use partial core corrections
 calculate Harris-corrections to forces
   (improved forces if not selfconsistent)
 use gradient corrections
 WARNING: stress and forces are not correct
  (second derivative of E(xc) not defined)
 use of overlap-Matrix (Vanderbilt PP)
 Gauss-broadening in eV      SIGMA  =   0.01

  energy-cutoff  :      500.00
  volume of cell :      160.21
      direct lattice vectors                 reciprocal lattice vectors
     5.435300000  0.000000000  0.000000000     0.183982485  0.000000000 -0.092196841
     0.000000000  5.435300000  0.000000000     0.000000000  0.183982485 -0.092196841
     2.717650000  2.717650000  5.423179281     0.000000000  0.000000000  0.184393683

  length of vectors
     5.435300000  5.435300000  6.646962958     0.205790700  0.205790700  0.184393683

 k-points in units of 2pi/SCALE and weight: Automatically generated mesh
   0.00000000  0.00000000  0.00000000       0.007
   0.16666667  0.00000000 -0.08351958       0.007
   0.33333333  0.00000000 -0.16703916       0.007
   0.50000000  0.00000000 -0.25055875       0.007
  -0.33333333  0.00000000  0.16703916       0.007
  -0.16666667  0.00000000  0.08351958       0.007
   0.00000000  0.16666667 -0.08351958       0.007
   0.16666667  0.16666667 -0.16703916       0.007
   0.33333333  0.16666667 -0.25055875       0.007
[...]
 WARNING: aliasing errors must be expected set NGZ to  50 to avoid them
 aliasing errors are usually negligible using standard VASP settings
 and one can safely disregard these warnings

 parallel 3D FFT for wavefunctions:
    minimum data exchange during FFTs selected (reduces bandwidth)
 parallel 3D FFT for charge:
    minimum data exchange during FFTs selected (reduces bandwidth)

 initial charge density was supplied:
 number of electron      83.9999897 magnetization      -0.0000416     -0.0000415     -0.0000415
 keeping initial charge density in first step

 Maximum index for augmentation-charges         1037 (set IRDMAX)

 First call to EWALD:  gamma=   0.326
 Maximum number of real-space cells 3x 3x 3
 Maximum number of reciprocal cells 3x 3x 3

 FEWALD executed in parallel

----------------------------------------- Iteration    1(   1)  ---------------------------------------

 eigenvalue-minimisations  :180344
 total energy-change (2. order) : 0.1055153E+04  (-0.4243363E+04)
 number of electron      83.9999897 magnetization      -0.0000416     -0.0000415     -0.0000415
 augmentation part       83.9999897 magnetization      -0.0000416     -0.0000415     -0.0000415

 Free energy of the ion-electron system (eV)
  alpha Z        PSCENC =       275.46753454
  Ewald energy   TEWEN  =     -7155.92568703
  -Hartree energ DENC   =     -5039.12610593
  -exchange      EXHF   =         0.00000000
  -V(xc)+E(xc)   XCENC  =       383.32127450
  PAW double counting   =     13048.01289665   -13557.71517245
  entropy T*S    EENTRO =        -0.00006479
  eigenvalues    EBANDS =       119.96832797
  atomic energy  EATOM  =     12981.15041703
  Solvation  Ediel_sol  =         0.00000000
  free energy    TOTEN  =      1055.15342049 eV

  energy without entropy =     1055.15348528  energy(sigma->0) =     1055.15345289

[...]

 eigenvalue-minimisations  :149960
 total energy-change (2. order) :-0.9063842E+03  (-0.8686610E+03)
 number of electron      83.9999897 magnetization      -0.0000416     -0.0000415     -0.0000415
 augmentation part       83.9999897 magnetization      -0.0000416     -0.0000415     -0.0000415

[...]

 total charge

# of ion     s       p       d       tot
  1        0.237   6.176   8.954  15.367
  2        0.236   6.174   8.954  15.364
  3        0.533   0.473   9.795  10.801
  4        1.114   1.128  10.112  12.354
  5        1.324   2.356   0.000   3.679
  6        1.324   2.356   0.000   3.680
  7        1.324   2.356   0.000   3.680
  8        1.324   2.356   0.000   3.680
tot        7.415  23.373  37.816  68.604

 magnetization (x)

[...]

 magnetization (y)

[...]

 magnetization (z)

[...]

----------------------------------------- Iteration    1(   9)  ---------------------------------------

 eigenvalue-minimisations  :149296
 total energy-change (2. order) :-0.5405745E-06  (-0.5405865E-06)
 number of electron      83.9999897 magnetization      -0.0000416     -0.0000415     -0.0000415
 augmentation part       83.9999897 magnetization      -0.0000416     -0.0000415     -0.0000415

 Free energy of the ion-electron system (eV)
  alpha Z        PSCENC =       275.46753454
  Ewald energy   TEWEN  =     -7155.92568703
  -Hartree energ DENC   =     -5039.12610593
  -exchange      EXHF   =         0.00000000
  -V(xc)+E(xc)   XCENC  =       383.32127450
  PAW double counting   =     13048.01289665   -13557.71517245
  entropy T*S    EENTRO =        -0.00000000
  eigenvalues    EBANDS =      -971.07818723
  atomic energy  EATOM  =     12981.15041703
  Solvation  Ediel_sol  =         0.00000000
  free energy    TOTEN  =       -35.89302992 eV

  energy without entropy =      -35.89302992  energy(sigma->0) =      -35.89302992

 average (electrostatic) potential at core
  the test charge radii are     0.8297  0.9521  1.0894  0.9698
  (the norm of the test charge is              1.0000)
       1 -80.6626       2 -80.6759       3 -34.5035       4-102.8334       5 -87.3535
       6 -87.3536       7 -87.3533       8 -87.3536

 E-fermi :   4.7439     XC(G=0): -10.0631     alpha+bet : -9.9404

 k-point     1 :       0.0000    0.0000    0.0000
  band No.  band energies     occupation
      1     -65.9646      1.00000
      2     -65.9646      1.00000
      3     -65.9510      1.00000
      4     -65.9510      1.00000
      5     -63.4390      1.00000
      6     -63.4390      1.00000
      7     -63.4104      1.00000
      8     -63.4104      1.00000
      9     -63.3908      1.00000
     10     -63.3908      1.00000
     11     -63.3879      1.00000
     12     -63.3879      1.00000
     13     -18.0908      1.00000
     14     -18.0908      1.00000
     15     -18.0872      1.00000
     16     -18.0872      1.00000
     17     -17.1031      1.00000
     18     -17.1031      1.00000
     19     -17.0432      1.00000
     20     -17.0432      1.00000
     21     -17.0387      1.00000
     22     -17.0387      1.00000
     23      -9.8886      1.00000
     24      -9.8886      1.00000
     25      -8.3384      1.00000
     26      -8.3384      1.00000
     27      -8.3290      1.00000
     28      -8.3290      1.00000
     29      -8.3206      1.00000
     30      -8.3206      1.00000
     31      -3.4597      1.00000
     32      -3.4596      1.00000
     33      -2.6502      1.00000
     34      -2.6502      1.00000
     35      -2.5828      1.00000
     36      -2.5828      1.00000
     37      -2.3389      1.00000
     38      -2.3389      1.00000
     39      -2.2954      1.00000
     40      -2.2954      1.00000
     41      -2.2283      1.00000
     42      -2.2283      1.00000
     43      -1.0528      1.00000
     44      -1.0528      1.00000
     45      -0.4120      1.00000
     46      -0.4120      1.00000
     47      -0.3150      1.00000
     48      -0.3150      1.00000
     49       0.0861      1.00000
     50       0.0862      1.00000
     51       0.1740      1.00000
     52       0.1740      1.00000
     53       0.1801      1.00000
     54       0.1801      1.00000
     55       0.8832      1.00000
     56       0.8833      1.00000
     57       0.9029      1.00000
     58       0.9029      1.00000
     59       1.3666      1.00000
     60       1.3666      1.00000
[...]
     94       8.4577      0.00000
     95       9.4699      0.00000
     96       9.4699      0.00000
     97       9.5605      0.00000
     98       9.5605      0.00000
     99       9.7954      0.00000
    100       9.7954      0.00000
    101       9.8620      0.00000
    102       9.8620      0.00000
    103      10.2384      0.00000
    104      10.2384      0.00000
    105      11.3865      0.00000
    106      11.4180      0.00000
    107      11.4660      0.00000
    108      11.5081      0.00000

[...]

 k-point   694 :       0.0000    0.0000    0.5000
  band No.  band energies     occupation
      1     -65.9645      1.00000
      2     -65.9645      1.00000
      3     -65.9510      1.00000
      4     -65.9510      1.00000
      5     -63.4389      1.00000
      6     -63.4389      1.00000
      7     -63.4103      1.00000
      8     -63.4103      1.00000
      9     -63.3907      1.00000
     10     -63.3907      1.00000
     11     -63.3879      1.00000
     12     -63.3879      1.00000
     13     -18.0908      1.00000
     14     -18.0908      1.00000
     15     -18.0870      1.00000
     16     -18.0870      1.00000
     17     -17.1029      1.00000
     18     -17.1029      1.00000
     19     -17.0433      1.00000
     20     -17.0433      1.00000
     21     -17.0385      1.00000
     22     -17.0385      1.00000
     23      -9.4084      1.00000
     24      -9.4084      1.00000
     25      -9.0140      1.00000
     26      -9.0140      1.00000
     27      -8.3441      1.00000
     28      -8.3441      1.00000
     29      -8.3380      1.00000
     30      -8.3380      1.00000
     31      -3.5248      1.00000
     32      -3.5248      1.00000
     33      -2.6290      1.00000
     34      -2.6290      1.00000
     35      -2.6023      1.00000
     36      -2.6023      1.00000
     37      -2.3572      1.00000
     38      -2.3572      1.00000
     39      -2.2774      1.00000
     40      -2.2774      1.00000
     41      -2.0410      1.00000
     42      -2.0410      1.00000
     43      -1.3399      1.00000
     44      -1.3399      1.00000
     45       0.0500      1.00000
     46       0.0500      1.00000
     47       0.0865      1.00000
     48       0.0865      1.00000
     49       0.3334      1.00000
     50       0.3334      1.00000
     51       0.4557      1.00000
     52       0.4557      1.00000
     53       0.5081      1.00000
     54       0.5081      1.00000
     55       0.9341      1.00000
     56       0.9341      1.00000
     57       0.9452      1.00000
     58       0.9452      1.00000
     59       1.2515      1.00000
     60       1.2516      1.00000
[...]
     94       7.8123      0.00000
     95       8.0132      0.00000
     96       8.0133      0.00000
     97       8.7702      0.00000
     98       8.7702      0.00000
     99       8.8079      0.00000
    100       8.8079      0.00000
    101      11.1193      0.00000
    102      11.1194      0.00000
    103      11.3179      0.00000
    104      11.3181      0.00000
    105      11.9983      0.00000
    106      12.0051      0.00000
    107      12.3269      0.00000
    108      12.3785      0.00000

 soft charge-density along one line, spin component           1
         0         1         2         3         4         5         6         7         8         9
 total charge-density along one line

[...]

 soft charge-density along one line, spin component           4
         0         1         2         3         4         5         6         7         8         9
 total charge-density along one line

------------------------ aborting loop because EDIFF is reached ----------------------------------------

[...]

  FORCE on cell =-STRESS in cart. coord.  units (eV):
  Direction    XX          YY          ZZ          XY          YZ          ZX
  Alpha Z   275.46753   275.46753   275.46753
  Ewald   -2394.86127 -2394.86127 -2366.21278     0.00000     0.00000     0.00000
  Hartree  1669.39992  1669.39984  1700.18910     0.00107     0.00569     0.00583
  E(xc)    -488.83251  -488.83251  -488.83221    -0.00001    -0.00009    -0.00010
  Local    -633.50436  -633.50415  -693.04507    -0.00073    -0.01707    -0.01748
  n-local   139.71314   139.71323   140.25348    -0.00080     0.00296     0.00325
  augment   521.05908   521.05902   520.59717     0.00022    -0.00046    -0.00080
  Kinetic   909.31736   909.31695   909.32971     0.00188     0.00796     0.00843
  Fock        0.00000     0.00000     0.00000     0.00000     0.00000     0.00000
  Total      -2.24110    -2.24136    -2.25306     0.00164    -0.00102    -0.00088
  in kB     -22.41150   -22.41409   -22.53108     0.01637    -0.01016    -0.00882

 VOLUME and BASIS-vectors are now :
  energy-cutoff  :      500.00
  volume of cell :      160.21
      direct lattice vectors                 reciprocal lattice vectors
     5.435300000  0.000000000  0.000000000     0.183982485  0.000000000 -0.092196841
     0.000000000  5.435300000  0.000000000     0.000000000  0.183982485 -0.092196841
     2.717650000  2.717650000  5.423179281     0.000000000  0.000000000  0.184393683

  length of vectors
     5.435300000  5.435300000  6.646962958     0.205790700  0.205790700  0.184393683

 FORCES acting on ions
    electron-ion (+dipol)            ewald-force                    non-local-force                 convergence-correction
   -.242E-02 -.101E-02 0.129E-02   0.792E-11 -.246E-11 -.853E-11   0.196E-02 0.850E-03 -.862E-03   -.834E-05 -.525E-04 0.278E-04
   -.163E-02 -.231E-02 0.263E-02   -.757E-11 -.244E-11 0.882E-11   0.139E-02 0.203E-02 -.211E-02   -.479E-04 -.356E-04 0.142E-04
   -.699E-03 -.180E-02 0.120E-02   0.544E-11 -.267E-11 0.605E-11   0.738E-03 0.162E-02 -.977E-03   -.145E-04 0.174E-04 -.781E-05
   -.330E-02 -.240E-02 0.403E-02   -.553E-11 -.253E-11 -.624E-11   0.314E-02 0.234E-02 -.363E-02   0.151E-05 -.331E-05 -.749E-05
   -.632E+02 -.744E+01 0.603E+01   0.613E+02 0.840E+01 -.704E+01   0.157E+01 -.785E+00 0.818E+00   0.735E-03 -.501E-03 0.522E-03
   0.632E+02 0.744E+01 0.603E+01   -.613E+02 -.840E+01 -.704E+01   -.157E+01 0.785E+00 0.817E+00   -.737E-03 0.505E-03 0.516E-03
   0.744E+01 -.632E+02 -.604E+01   -.840E+01 0.613E+02 0.704E+01   0.784E+00 0.157E+01 -.814E+00   0.507E-03 0.738E-03 -.521E-03
   -.744E+01 0.632E+02 -.603E+01   0.840E+01 -.613E+02 0.704E+01   -.786E+00 -.157E+01 -.818E+00   -.500E-03 -.738E-03 -.527E-03
   -.444E-02 -.407E-02 0.483E-02   -.178E-13 -.711E-14 -.888E-15   0.438E-02 0.424E-02 -.481E-02   -.641E-04 -.703E-04 0.178E-04

 POSITION                                       TOTAL-FORCE (eV/Angst)
      0.00000      0.00000      0.00000        -0.000457     -0.000227      0.000448
      5.43530      2.71765      2.71159        -0.000271     -0.000328      0.000530
      2.71765      2.71765      0.00000         0.000039     -0.000169      0.000210
      2.71765      5.43530      2.71159        -0.000137     -0.000071      0.000386
      1.30213      1.38979      1.32105        -0.369277      0.180552     -0.192323
      4.13317      4.04551      1.32105         0.369861     -0.179913     -0.192562
      6.76316      4.01978      4.10213        -0.180646     -0.369759      0.192115
      4.10744      6.85082      4.10213         0.180889      0.369916      0.191196
    total drift:                               -0.000117      0.000101      0.000034

  FREE ENERGIE OF THE ION-ELECTRON SYSTEM (eV)
  free  energy   TOTEN  =       -35.89302992 eV

  energy  without entropy=      -35.89302992  energy(sigma->0) =      -35.89302992

 writing wavefunctions

 Spin-Orbit-Coupling matrix elements

 Ion:    1  E_soc:     -0.0611028
 l=   1
     0.0000000    -0.0086138    -0.0086106
    -0.0086138     0.0000000    -0.0086138
    -0.0086106    -0.0086138     0.0000000
 l=   2
     0.0000000    -0.0003044     0.0000000    -0.0003044    -0.0012946
    -0.0003044     0.0000000    -0.0009361    -0.0002887    -0.0003245
     0.0000000    -0.0009361     0.0000000    -0.0009360     0.0000000
    -0.0003044    -0.0002887    -0.0009360     0.0000000    -0.0003244
    -0.0012946    -0.0003245     0.0000000    -0.0003244     0.0000000
 l=   3
     0.0000000     0.0000000     0.0000000     0.0000000     0.0000000     0.0000000     0.0000000
     0.0000000     0.0000000     0.0000000     0.0000000     0.0000000     0.0000000     0.0000000
     0.0000000     0.0000000     0.0000000     0.0000000     0.0000000     0.0000000     0.0000000
     0.0000000     0.0000000     0.0000000     0.0000000     0.0000000     0.0000000     0.0000000
     0.0000000     0.0000000     0.0000000     0.0000000     0.0000000     0.0000000     0.0000000
     0.0000000     0.0000000     0.0000000     0.0000000     0.0000000     0.0000000     0.0000000
     0.0000000     0.0000000     0.0000000     0.0000000     0.0000000     0.0000000     0.0000000

[...]

 Ion:    8  E_soc:     -0.0020491
 l=   1
     0.0000000    -0.0003387    -0.0003422
    -0.0003387     0.0000000    -0.0003436
    -0.0003422    -0.0003436     0.0000000
 l=   2
     0.0000000     0.0000000     0.0000000     0.0000000     0.0000000
     0.0000000     0.0000000     0.0000000     0.0000000     0.0000000
     0.0000000     0.0000000     0.0000000     0.0000000     0.0000000
     0.0000000     0.0000000     0.0000000     0.0000000     0.0000000
     0.0000000     0.0000000     0.0000000     0.0000000     0.0000000
 l=   3
     0.0000000     0.0000000     0.0000000     0.0000000     0.0000000     0.0000000     0.0000000
     0.0000000     0.0000000     0.0000000     0.0000000     0.0000000     0.0000000     0.0000000
     0.0000000     0.0000000     0.0000000     0.0000000     0.0000000     0.0000000     0.0000000
     0.0000000     0.0000000     0.0000000     0.0000000     0.0000000     0.0000000     0.0000000
     0.0000000     0.0000000     0.0000000     0.0000000     0.0000000     0.0000000     0.0000000
     0.0000000     0.0000000     0.0000000     0.0000000     0.0000000     0.0000000     0.0000000
     0.0000000     0.0000000     0.0000000     0.0000000     0.0000000     0.0000000     0.0000000

 total charge

[...]

 magnetization (x)

[...]

 magnetization (y)

[...]

 magnetization (z)

# of ion     s       p       d       tot
  1        0.000   0.000  -0.000  -0.000
  2        0.000   0.000  -0.000  -0.000
  3        0.000  -0.000   0.000   0.000
  4       -0.000  -0.000  -0.000  -0.000
  5       -0.000   0.000   0.000   0.000
  6       -0.000   0.000   0.000   0.000
  7       -0.000   0.000   0.000   0.000
  8       -0.000   0.000   0.000   0.000
tot       -0.000   0.000  -0.000  -0.000